*Heading
** Generated by OSAM INP Converter

*Part, name=CompisteIGriderBridgeSpans20_SA

*NODE
1,           0, -3.3975e-13,-1.43894e-12
2,        1000, -3.3975e-13,-1.43894e-12
3,       20000, -3.3975e-13,-1.43894e-12
4,       21000, -3.3975e-13,-1.43894e-12
5,       40000, -3.3975e-13,-1.43894e-12
6,       41000, -3.3975e-13,-1.43894e-12
7,       60000, -3.3975e-13,-1.43894e-12
8,       61000, -3.3975e-13,-1.43894e-12
9,       80000, -3.3975e-13,-1.43894e-12
10,       81000, -3.3975e-13,-1.43894e-12
11,      100000, -3.3975e-13,-1.43894e-12
12,      101000, -3.3975e-13,-1.43894e-12
13,      120000, -3.3975e-13,-1.43894e-12
14,      121000, -3.3975e-13,-1.43894e-12
15,      140000, -3.3975e-13,-1.43894e-12
16,      141000, -3.3975e-13,-1.43894e-12
17,      160000, -3.3975e-13,-1.43894e-12
18,      161000, -3.3975e-13,-1.43894e-12
19,      180000, -3.3975e-13,-1.43894e-12
20,      181000, -3.3975e-13,-1.43894e-12
21,      200000, -3.3975e-13,-1.43894e-12
22,      201000, -3.3975e-13,-1.43894e-12
23,      220000, -3.3975e-13,-1.43894e-12
24,      221000, -3.3975e-13,-1.43894e-12
25,      240000, -3.3975e-13,-1.43894e-12
26,      241000, -3.3975e-13,-1.43894e-12
27,      260000, -3.3975e-13,-1.43894e-12
28,      261000, -3.3975e-13,-1.43894e-12
29,      280000, -3.3975e-13,-1.43894e-12
30,      281000, -3.3975e-13,-1.43894e-12
31,      300000, -3.3975e-13,-1.43894e-12
32,      301000, -3.3975e-13,-1.43894e-12
33,      320000, -3.3975e-13,-1.43894e-12
34,      321000, -3.3975e-13,-1.43894e-12
35,      340000, -3.3975e-13,-1.43894e-12
36,      341000, -3.3975e-13,-1.43894e-12
37,      360000, -3.3975e-13,-1.43894e-12
38,      361000, -3.3975e-13,-1.43894e-12
39,      380000, -3.3975e-13,-1.43894e-12
40,      381000, -3.3975e-13,-1.43894e-12
41,        2000, -3.3975e-13,-1.43894e-12
42,       22000, -3.3975e-13,-1.43894e-12
43,       42000, -3.3975e-13,-1.43894e-12
44,       62000, -3.3975e-13,-1.43894e-12
45,       82000, -3.3975e-13,-1.43894e-12
46,      102000, -3.3975e-13,-1.43894e-12
47,      122000, -3.3975e-13,-1.43894e-12
48,      142000, -3.3975e-13,-1.43894e-12
49,      162000, -3.3975e-13,-1.43894e-12
50,      182000, -3.3975e-13,-1.43894e-12
51,      202000, -3.3975e-13,-1.43894e-12
52,      222000, -3.3975e-13,-1.43894e-12
53,      242000, -3.3975e-13,-1.43894e-12
54,      262000, -3.3975e-13,-1.43894e-12
55,      282000, -3.3975e-13,-1.43894e-12
56,      302000, -3.3975e-13,-1.43894e-12
57,      322000, -3.3975e-13,-1.43894e-12
58,      342000, -3.3975e-13,-1.43894e-12
59,      362000, -3.3975e-13,-1.43894e-12
60,      382000, -3.3975e-13,-1.43894e-12
61,        3000, -3.3975e-13,-1.43894e-12
62,       23000, -3.3975e-13,-1.43894e-12
63,       43000, -3.3975e-13,-1.43894e-12
64,       63000, -3.3975e-13,-1.43894e-12
65,       83000, -3.3975e-13,-1.43894e-12
66,      103000, -3.3975e-13,-1.43894e-12
67,      123000, -3.3975e-13,-1.43894e-12
68,      143000, -3.3975e-13,-1.43894e-12
69,      163000, -3.3975e-13,-1.43894e-12
70,      183000, -3.3975e-13,-1.43894e-12
71,      203000, -3.3975e-13,-1.43894e-12
72,      223000, -3.3975e-13,-1.43894e-12
73,      243000, -3.3975e-13,-1.43894e-12
74,      263000, -3.3975e-13,-1.43894e-12
75,      283000, -3.3975e-13,-1.43894e-12
76,      303000, -3.3975e-13,-1.43894e-12
77,      323000, -3.3975e-13,-1.43894e-12
78,      343000, -3.3975e-13,-1.43894e-12
79,      363000, -3.3975e-13,-1.43894e-12
80,      383000, -3.3975e-13,-1.43894e-12
81,        4000, -3.3975e-13,-1.43894e-12
82,       24000, -3.3975e-13,-1.43894e-12
83,       44000, -3.3975e-13,-1.43894e-12
84,       64000, -3.3975e-13,-1.43894e-12
85,       84000, -3.3975e-13,-1.43894e-12
86,      104000, -3.3975e-13,-1.43894e-12
87,      124000, -3.3975e-13,-1.43894e-12
88,      144000, -3.3975e-13,-1.43894e-12
89,      164000, -3.3975e-13,-1.43894e-12
90,      184000, -3.3975e-13,-1.43894e-12
91,      204000, -3.3975e-13,-1.43894e-12
92,      224000, -3.3975e-13,-1.43894e-12
93,      244000, -3.3975e-13,-1.43894e-12
94,      264000, -3.3975e-13,-1.43894e-12
95,      284000, -3.3975e-13,-1.43894e-12
96,      304000, -3.3975e-13,-1.43894e-12
97,      324000, -3.3975e-13,-1.43894e-12
98,      344000, -3.3975e-13,-1.43894e-12
99,      364000, -3.3975e-13,-1.43894e-12
100,      384000, -3.3975e-13,-1.43894e-12
101,        5000, -3.3975e-13,-1.43894e-12
102,       25000, -3.3975e-13,-1.43894e-12
103,       45000, -3.3975e-13,-1.43894e-12
104,       65000, -3.3975e-13,-1.43894e-12
105,       85000, -3.3975e-13,-1.43894e-12
106,      105000, -3.3975e-13,-1.43894e-12
107,      125000, -3.3975e-13,-1.43894e-12
108,      145000, -3.3975e-13,-1.43894e-12
109,      165000, -3.3975e-13,-1.43894e-12
110,      185000, -3.3975e-13,-1.43894e-12
111,      205000, -3.3975e-13,-1.43894e-12
112,      225000, -3.3975e-13,-1.43894e-12
113,      245000, -3.3975e-13,-1.43894e-12
114,      265000, -3.3975e-13,-1.43894e-12
115,      285000, -3.3975e-13,-1.43894e-12
116,      305000, -3.3975e-13,-1.43894e-12
117,      325000, -3.3975e-13,-1.43894e-12
118,      345000, -3.3975e-13,-1.43894e-12
119,      365000, -3.3975e-13,-1.43894e-12
120,      385000, -3.3975e-13,-1.43894e-12
121,        6000, -3.3975e-13,-1.43894e-12
122,       26000, -3.3975e-13,-1.43894e-12
123,       46000, -3.3975e-13,-1.43894e-12
124,       66000, -3.3975e-13,-1.43894e-12
125,       86000, -3.3975e-13,-1.43894e-12
126,      106000, -3.3975e-13,-1.43894e-12
127,      126000, -3.3975e-13,-1.43894e-12
128,      146000, -3.3975e-13,-1.43894e-12
129,      166000, -3.3975e-13,-1.43894e-12
130,      186000, -3.3975e-13,-1.43894e-12
131,      206000, -3.3975e-13,-1.43894e-12
132,      226000, -3.3975e-13,-1.43894e-12
133,      246000, -3.3975e-13,-1.43894e-12
134,      266000, -3.3975e-13,-1.43894e-12
135,      286000, -3.3975e-13,-1.43894e-12
136,      306000, -3.3975e-13,-1.43894e-12
137,      326000, -3.3975e-13,-1.43894e-12
138,      346000, -3.3975e-13,-1.43894e-12
139,      366000, -3.3975e-13,-1.43894e-12
140,      386000, -3.3975e-13,-1.43894e-12
141,        7000, -3.3975e-13,-1.43894e-12
142,       27000, -3.3975e-13,-1.43894e-12
143,       47000, -3.3975e-13,-1.43894e-12
144,       67000, -3.3975e-13,-1.43894e-12
145,       87000, -3.3975e-13,-1.43894e-12
146,      107000, -3.3975e-13,-1.43894e-12
147,      127000, -3.3975e-13,-1.43894e-12
148,      147000, -3.3975e-13,-1.43894e-12
149,      167000, -3.3975e-13,-1.43894e-12
150,      187000, -3.3975e-13,-1.43894e-12
151,      207000, -3.3975e-13,-1.43894e-12
152,      227000, -3.3975e-13,-1.43894e-12
153,      247000, -3.3975e-13,-1.43894e-12
154,      267000, -3.3975e-13,-1.43894e-12
155,      287000, -3.3975e-13,-1.43894e-12
156,      307000, -3.3975e-13,-1.43894e-12
157,      327000, -3.3975e-13,-1.43894e-12
158,      347000, -3.3975e-13,-1.43894e-12
159,      367000, -3.3975e-13,-1.43894e-12
160,      387000, -3.3975e-13,-1.43894e-12
161,        8000, -3.3975e-13,-1.43894e-12
162,       28000, -3.3975e-13,-1.43894e-12
163,       48000, -3.3975e-13,-1.43894e-12
164,       68000, -3.3975e-13,-1.43894e-12
165,       88000, -3.3975e-13,-1.43894e-12
166,      108000, -3.3975e-13,-1.43894e-12
167,      128000, -3.3975e-13,-1.43894e-12
168,      148000, -3.3975e-13,-1.43894e-12
169,      168000, -3.3975e-13,-1.43894e-12
170,      188000, -3.3975e-13,-1.43894e-12
171,      208000, -3.3975e-13,-1.43894e-12
172,      228000, -3.3975e-13,-1.43894e-12
173,      248000, -3.3975e-13,-1.43894e-12
174,      268000, -3.3975e-13,-1.43894e-12
175,      288000, -3.3975e-13,-1.43894e-12
176,      308000, -3.3975e-13,-1.43894e-12
177,      328000, -3.3975e-13,-1.43894e-12
178,      348000, -3.3975e-13,-1.43894e-12
179,      368000, -3.3975e-13,-1.43894e-12
180,      388000, -3.3975e-13,-1.43894e-12
181,        9000, -3.3975e-13,-1.43894e-12
182,       29000, -3.3975e-13,-1.43894e-12
183,       49000, -3.3975e-13,-1.43894e-12
184,       69000, -3.3975e-13,-1.43894e-12
185,       89000, -3.3975e-13,-1.43894e-12
186,      109000, -3.3975e-13,-1.43894e-12
187,      129000, -3.3975e-13,-1.43894e-12
188,      149000, -3.3975e-13,-1.43894e-12
189,      169000, -3.3975e-13,-1.43894e-12
190,      189000, -3.3975e-13,-1.43894e-12
191,      209000, -3.3975e-13,-1.43894e-12
192,      229000, -3.3975e-13,-1.43894e-12
193,      249000, -3.3975e-13,-1.43894e-12
194,      269000, -3.3975e-13,-1.43894e-12
195,      289000, -3.3975e-13,-1.43894e-12
196,      309000, -3.3975e-13,-1.43894e-12
197,      329000, -3.3975e-13,-1.43894e-12
198,      349000, -3.3975e-13,-1.43894e-12
199,      369000, -3.3975e-13,-1.43894e-12
200,      389000, -3.3975e-13,-1.43894e-12
201,       10000, -3.3975e-13,-1.43894e-12
202,       30000, -3.3975e-13,-1.43894e-12
203,       50000, -3.3975e-13,-1.43894e-12
204,       70000, -3.3975e-13,-1.43894e-12
205,       90000, -3.3975e-13,-1.43894e-12
206,      110000, -3.3975e-13,-1.43894e-12
207,      130000, -3.3975e-13,-1.43894e-12
208,      150000, -3.3975e-13,-1.43894e-12
209,      170000, -3.3975e-13,-1.43894e-12
210,      190000, -3.3975e-13,-1.43894e-12
211,      210000, -3.3975e-13,-1.43894e-12
212,      230000, -3.3975e-13,-1.43894e-12
213,      250000, -3.3975e-13,-1.43894e-12
214,      270000, -3.3975e-13,-1.43894e-12
215,      290000, -3.3975e-13,-1.43894e-12
216,      310000, -3.3975e-13,-1.43894e-12
217,      330000, -3.3975e-13,-1.43894e-12
218,      350000, -3.3975e-13,-1.43894e-12
219,      370000, -3.3975e-13,-1.43894e-12
220,      390000, -3.3975e-13,-1.43894e-12
221,       11000, -3.3975e-13,-1.43894e-12
222,       31000, -3.3975e-13,-1.43894e-12
223,       51000, -3.3975e-13,-1.43894e-12
224,       71000, -3.3975e-13,-1.43894e-12
225,       91000, -3.3975e-13,-1.43894e-12
226,      111000, -3.3975e-13,-1.43894e-12
227,      131000, -3.3975e-13,-1.43894e-12
228,      151000, -3.3975e-13,-1.43894e-12
229,      171000, -3.3975e-13,-1.43894e-12
230,      191000, -3.3975e-13,-1.43894e-12
231,      211000, -3.3975e-13,-1.43894e-12
232,      231000, -3.3975e-13,-1.43894e-12
233,      251000, -3.3975e-13,-1.43894e-12
234,      271000, -3.3975e-13,-1.43894e-12
235,      291000, -3.3975e-13,-1.43894e-12
236,      311000, -3.3975e-13,-1.43894e-12
237,      331000, -3.3975e-13,-1.43894e-12
238,      351000, -3.3975e-13,-1.43894e-12
239,      371000, -3.3975e-13,-1.43894e-12
240,      391000, -3.3975e-13,-1.43894e-12
241,       12000, -3.3975e-13,-1.43894e-12
242,       32000, -3.3975e-13,-1.43894e-12
243,       52000, -3.3975e-13,-1.43894e-12
244,       72000, -3.3975e-13,-1.43894e-12
245,       92000, -3.3975e-13,-1.43894e-12
246,      112000, -3.3975e-13,-1.43894e-12
247,      132000, -3.3975e-13,-1.43894e-12
248,      152000, -3.3975e-13,-1.43894e-12
249,      172000, -3.3975e-13,-1.43894e-12
250,      192000, -3.3975e-13,-1.43894e-12
251,      212000, -3.3975e-13,-1.43894e-12
252,      232000, -3.3975e-13,-1.43894e-12
253,      252000, -3.3975e-13,-1.43894e-12
254,      272000, -3.3975e-13,-1.43894e-12
255,      292000, -3.3975e-13,-1.43894e-12
256,      312000, -3.3975e-13,-1.43894e-12
257,      332000, -3.3975e-13,-1.43894e-12
258,      352000, -3.3975e-13,-1.43894e-12
259,      372000, -3.3975e-13,-1.43894e-12
260,      392000, -3.3975e-13,-1.43894e-12
261,       13000, -3.3975e-13,-1.43894e-12
262,       33000, -3.3975e-13,-1.43894e-12
263,       53000, -3.3975e-13,-1.43894e-12
264,       73000, -3.3975e-13,-1.43894e-12
265,       93000, -3.3975e-13,-1.43894e-12
266,      113000, -3.3975e-13,-1.43894e-12
267,      133000, -3.3975e-13,-1.43894e-12
268,      153000, -3.3975e-13,-1.43894e-12
269,      173000, -3.3975e-13,-1.43894e-12
270,      193000, -3.3975e-13,-1.43894e-12
271,      213000, -3.3975e-13,-1.43894e-12
272,      233000, -3.3975e-13,-1.43894e-12
273,      253000, -3.3975e-13,-1.43894e-12
274,      273000, -3.3975e-13,-1.43894e-12
275,      293000, -3.3975e-13,-1.43894e-12
276,      313000, -3.3975e-13,-1.43894e-12
277,      333000, -3.3975e-13,-1.43894e-12
278,      353000, -3.3975e-13,-1.43894e-12
279,      373000, -3.3975e-13,-1.43894e-12
280,      393000, -3.3975e-13,-1.43894e-12
281,       14000, -3.3975e-13,-1.43894e-12
282,       34000, -3.3975e-13,-1.43894e-12
283,       54000, -3.3975e-13,-1.43894e-12
284,       74000, -3.3975e-13,-1.43894e-12
285,       94000, -3.3975e-13,-1.43894e-12
286,      114000, -3.3975e-13,-1.43894e-12
287,      134000, -3.3975e-13,-1.43894e-12
288,      154000, -3.3975e-13,-1.43894e-12
289,      174000, -3.3975e-13,-1.43894e-12
290,      194000, -3.3975e-13,-1.43894e-12
291,      214000, -3.3975e-13,-1.43894e-12
292,      234000, -3.3975e-13,-1.43894e-12
293,      254000, -3.3975e-13,-1.43894e-12
294,      274000, -3.3975e-13,-1.43894e-12
295,      294000, -3.3975e-13,-1.43894e-12
296,      314000, -3.3975e-13,-1.43894e-12
297,      334000, -3.3975e-13,-1.43894e-12
298,      354000, -3.3975e-13,-1.43894e-12
299,      374000, -3.3975e-13,-1.43894e-12
300,      394000, -3.3975e-13,-1.43894e-12
301,       15000, -3.3975e-13,-1.43894e-12
302,       35000, -3.3975e-13,-1.43894e-12
303,       55000, -3.3975e-13,-1.43894e-12
304,       75000, -3.3975e-13,-1.43894e-12
305,       95000, -3.3975e-13,-1.43894e-12
306,      115000, -3.3975e-13,-1.43894e-12
307,      135000, -3.3975e-13,-1.43894e-12
308,      155000, -3.3975e-13,-1.43894e-12
309,      175000, -3.3975e-13,-1.43894e-12
310,      195000, -3.3975e-13,-1.43894e-12
311,      215000, -3.3975e-13,-1.43894e-12
312,      235000, -3.3975e-13,-1.43894e-12
313,      255000, -3.3975e-13,-1.43894e-12
314,      275000, -3.3975e-13,-1.43894e-12
315,      295000, -3.3975e-13,-1.43894e-12
316,      315000, -3.3975e-13,-1.43894e-12
317,      335000, -3.3975e-13,-1.43894e-12
318,      355000, -3.3975e-13,-1.43894e-12
319,      375000, -3.3975e-13,-1.43894e-12
320,      395000, -3.3975e-13,-1.43894e-12
321,       16000, -3.3975e-13,-1.43894e-12
322,       36000, -3.3975e-13,-1.43894e-12
323,       56000, -3.3975e-13,-1.43894e-12
324,       76000, -3.3975e-13,-1.43894e-12
325,       96000, -3.3975e-13,-1.43894e-12
326,      116000, -3.3975e-13,-1.43894e-12
327,      136000, -3.3975e-13,-1.43894e-12
328,      156000, -3.3975e-13,-1.43894e-12
329,      176000, -3.3975e-13,-1.43894e-12
330,      196000, -3.3975e-13,-1.43894e-12
331,      216000, -3.3975e-13,-1.43894e-12
332,      236000, -3.3975e-13,-1.43894e-12
333,      256000, -3.3975e-13,-1.43894e-12
334,      276000, -3.3975e-13,-1.43894e-12
335,      296000, -3.3975e-13,-1.43894e-12
336,      316000, -3.3975e-13,-1.43894e-12
337,      336000, -3.3975e-13,-1.43894e-12
338,      356000, -3.3975e-13,-1.43894e-12
339,      376000, -3.3975e-13,-1.43894e-12
340,      396000, -3.3975e-13,-1.43894e-12
341,       17000, -3.3975e-13,-1.43894e-12
342,       37000, -3.3975e-13,-1.43894e-12
343,       57000, -3.3975e-13,-1.43894e-12
344,       77000, -3.3975e-13,-1.43894e-12
345,       97000, -3.3975e-13,-1.43894e-12
346,      117000, -3.3975e-13,-1.43894e-12
347,      137000, -3.3975e-13,-1.43894e-12
348,      157000, -3.3975e-13,-1.43894e-12
349,      177000, -3.3975e-13,-1.43894e-12
350,      197000, -3.3975e-13,-1.43894e-12
351,      217000, -3.3975e-13,-1.43894e-12
352,      237000, -3.3975e-13,-1.43894e-12
353,      257000, -3.3975e-13,-1.43894e-12
354,      277000, -3.3975e-13,-1.43894e-12
355,      297000, -3.3975e-13,-1.43894e-12
356,      317000, -3.3975e-13,-1.43894e-12
357,      337000, -3.3975e-13,-1.43894e-12
358,      357000, -3.3975e-13,-1.43894e-12
359,      377000, -3.3975e-13,-1.43894e-12
360,      397000, -3.3975e-13,-1.43894e-12
361,       18000, -3.3975e-13,-1.43894e-12
362,       38000, -3.3975e-13,-1.43894e-12
363,       58000, -3.3975e-13,-1.43894e-12
364,       78000, -3.3975e-13,-1.43894e-12
365,       98000, -3.3975e-13,-1.43894e-12
366,      118000, -3.3975e-13,-1.43894e-12
367,      138000, -3.3975e-13,-1.43894e-12
368,      158000, -3.3975e-13,-1.43894e-12
369,      178000, -3.3975e-13,-1.43894e-12
370,      198000, -3.3975e-13,-1.43894e-12
371,      218000, -3.3975e-13,-1.43894e-12
372,      238000, -3.3975e-13,-1.43894e-12
373,      258000, -3.3975e-13,-1.43894e-12
374,      278000, -3.3975e-13,-1.43894e-12
375,      298000, -3.3975e-13,-1.43894e-12
376,      318000, -3.3975e-13,-1.43894e-12
377,      338000, -3.3975e-13,-1.43894e-12
378,      358000, -3.3975e-13,-1.43894e-12
379,      378000, -3.3975e-13,-1.43894e-12
380,      398000, -3.3975e-13,-1.43894e-12
381,       19000, -3.3975e-13,-1.43894e-12
382,       39000, -3.3975e-13,-1.43894e-12
383,       59000, -3.3975e-13,-1.43894e-12
384,       79000, -3.3975e-13,-1.43894e-12
385,       99000, -3.3975e-13,-1.43894e-12
386,      119000, -3.3975e-13,-1.43894e-12
387,      139000, -3.3975e-13,-1.43894e-12
388,      159000, -3.3975e-13,-1.43894e-12
389,      179000, -3.3975e-13,-1.43894e-12
390,      199000, -3.3975e-13,-1.43894e-12
391,      219000, -3.3975e-13,-1.43894e-12
392,      239000, -3.3975e-13,-1.43894e-12
393,      259000, -3.3975e-13,-1.43894e-12
394,      279000, -3.3975e-13,-1.43894e-12
395,      299000, -3.3975e-13,-1.43894e-12
396,      319000, -3.3975e-13,-1.43894e-12
397,      339000, -3.3975e-13,-1.43894e-12
398,      359000, -3.3975e-13,-1.43894e-12
399,      379000, -3.3975e-13,-1.43894e-12
400,      399000, -3.3975e-13,-1.43894e-12
401,      400000, -3.3975e-13,-1.43894e-12
402,           0,        2100,-1.43894e-12
403,        1000,        2100,-1.43894e-12
404,       20000,        2100,-1.43894e-12
405,       21000,        2100,-1.43894e-12
406,       40000,        2100,-1.43894e-12
407,       41000,        2100,-1.43894e-12
408,       60000,        2100,-1.43894e-12
409,       61000,        2100,-1.43894e-12
410,       80000,        2100,-1.43894e-12
411,       81000,        2100,-1.43894e-12
412,      100000,        2100,-1.43894e-12
413,      101000,        2100,-1.43894e-12
414,      120000,        2100,-1.43894e-12
415,      121000,        2100,-1.43894e-12
416,      140000,        2100,-1.43894e-12
417,      141000,        2100,-1.43894e-12
418,      160000,        2100,-1.43894e-12
419,      161000,        2100,-1.43894e-12
420,      180000,        2100,-1.43894e-12
421,      181000,        2100,-1.43894e-12
422,      200000,        2100,-1.43894e-12
423,      201000,        2100,-1.43894e-12
424,      220000,        2100,-1.43894e-12
425,      221000,        2100,-1.43894e-12
426,      240000,        2100,-1.43894e-12
427,      241000,        2100,-1.43894e-12
428,      260000,        2100,-1.43894e-12
429,      261000,        2100,-1.43894e-12
430,      280000,        2100,-1.43894e-12
431,      281000,        2100,-1.43894e-12
432,      300000,        2100,-1.43894e-12
433,      301000,        2100,-1.43894e-12
434,      320000,        2100,-1.43894e-12
435,      321000,        2100,-1.43894e-12
436,      340000,        2100,-1.43894e-12
437,      341000,        2100,-1.43894e-12
438,      360000,        2100,-1.43894e-12
439,      361000,        2100,-1.43894e-12
440,      380000,        2100,-1.43894e-12
441,      381000,        2100,-1.43894e-12
442,        2000,        2100,-1.43894e-12
443,       22000,        2100,-1.43894e-12
444,       42000,        2100,-1.43894e-12
445,       62000,        2100,-1.43894e-12
446,       82000,        2100,-1.43894e-12
447,      102000,        2100,-1.43894e-12
448,      122000,        2100,-1.43894e-12
449,      142000,        2100,-1.43894e-12
450,      162000,        2100,-1.43894e-12
451,      182000,        2100,-1.43894e-12
452,      202000,        2100,-1.43894e-12
453,      222000,        2100,-1.43894e-12
454,      242000,        2100,-1.43894e-12
455,      262000,        2100,-1.43894e-12
456,      282000,        2100,-1.43894e-12
457,      302000,        2100,-1.43894e-12
458,      322000,        2100,-1.43894e-12
459,      342000,        2100,-1.43894e-12
460,      362000,        2100,-1.43894e-12
461,      382000,        2100,-1.43894e-12
462,        3000,        2100,-1.43894e-12
463,       23000,        2100,-1.43894e-12
464,       43000,        2100,-1.43894e-12
465,       63000,        2100,-1.43894e-12
466,       83000,        2100,-1.43894e-12
467,      103000,        2100,-1.43894e-12
468,      123000,        2100,-1.43894e-12
469,      143000,        2100,-1.43894e-12
470,      163000,        2100,-1.43894e-12
471,      183000,        2100,-1.43894e-12
472,      203000,        2100,-1.43894e-12
473,      223000,        2100,-1.43894e-12
474,      243000,        2100,-1.43894e-12
475,      263000,        2100,-1.43894e-12
476,      283000,        2100,-1.43894e-12
477,      303000,        2100,-1.43894e-12
478,      323000,        2100,-1.43894e-12
479,      343000,        2100,-1.43894e-12
480,      363000,        2100,-1.43894e-12
481,      383000,        2100,-1.43894e-12
482,        4000,        2100,-1.43894e-12
483,       24000,        2100,-1.43894e-12
484,       44000,        2100,-1.43894e-12
485,       64000,        2100,-1.43894e-12
486,       84000,        2100,-1.43894e-12
487,      104000,        2100,-1.43894e-12
488,      124000,        2100,-1.43894e-12
489,      144000,        2100,-1.43894e-12
490,      164000,        2100,-1.43894e-12
491,      184000,        2100,-1.43894e-12
492,      204000,        2100,-1.43894e-12
493,      224000,        2100,-1.43894e-12
494,      244000,        2100,-1.43894e-12
495,      264000,        2100,-1.43894e-12
496,      284000,        2100,-1.43894e-12
497,      304000,        2100,-1.43894e-12
498,      324000,        2100,-1.43894e-12
499,      344000,        2100,-1.43894e-12
500,      364000,        2100,-1.43894e-12
501,      384000,        2100,-1.43894e-12
502,        5000,        2100,-1.43894e-12
503,       25000,        2100,-1.43894e-12
504,       45000,        2100,-1.43894e-12
505,       65000,        2100,-1.43894e-12
506,       85000,        2100,-1.43894e-12
507,      105000,        2100,-1.43894e-12
508,      125000,        2100,-1.43894e-12
509,      145000,        2100,-1.43894e-12
510,      165000,        2100,-1.43894e-12
511,      185000,        2100,-1.43894e-12
512,      205000,        2100,-1.43894e-12
513,      225000,        2100,-1.43894e-12
514,      245000,        2100,-1.43894e-12
515,      265000,        2100,-1.43894e-12
516,      285000,        2100,-1.43894e-12
517,      305000,        2100,-1.43894e-12
518,      325000,        2100,-1.43894e-12
519,      345000,        2100,-1.43894e-12
520,      365000,        2100,-1.43894e-12
521,      385000,        2100,-1.43894e-12
522,        6000,        2100,-1.43894e-12
523,       26000,        2100,-1.43894e-12
524,       46000,        2100,-1.43894e-12
525,       66000,        2100,-1.43894e-12
526,       86000,        2100,-1.43894e-12
527,      106000,        2100,-1.43894e-12
528,      126000,        2100,-1.43894e-12
529,      146000,        2100,-1.43894e-12
530,      166000,        2100,-1.43894e-12
531,      186000,        2100,-1.43894e-12
532,      206000,        2100,-1.43894e-12
533,      226000,        2100,-1.43894e-12
534,      246000,        2100,-1.43894e-12
535,      266000,        2100,-1.43894e-12
536,      286000,        2100,-1.43894e-12
537,      306000,        2100,-1.43894e-12
538,      326000,        2100,-1.43894e-12
539,      346000,        2100,-1.43894e-12
540,      366000,        2100,-1.43894e-12
541,      386000,        2100,-1.43894e-12
542,        7000,        2100,-1.43894e-12
543,       27000,        2100,-1.43894e-12
544,       47000,        2100,-1.43894e-12
545,       67000,        2100,-1.43894e-12
546,       87000,        2100,-1.43894e-12
547,      107000,        2100,-1.43894e-12
548,      127000,        2100,-1.43894e-12
549,      147000,        2100,-1.43894e-12
550,      167000,        2100,-1.43894e-12
551,      187000,        2100,-1.43894e-12
552,      207000,        2100,-1.43894e-12
553,      227000,        2100,-1.43894e-12
554,      247000,        2100,-1.43894e-12
555,      267000,        2100,-1.43894e-12
556,      287000,        2100,-1.43894e-12
557,      307000,        2100,-1.43894e-12
558,      327000,        2100,-1.43894e-12
559,      347000,        2100,-1.43894e-12
560,      367000,        2100,-1.43894e-12
561,      387000,        2100,-1.43894e-12
562,        8000,        2100,-1.43894e-12
563,       28000,        2100,-1.43894e-12
564,       48000,        2100,-1.43894e-12
565,       68000,        2100,-1.43894e-12
566,       88000,        2100,-1.43894e-12
567,      108000,        2100,-1.43894e-12
568,      128000,        2100,-1.43894e-12
569,      148000,        2100,-1.43894e-12
570,      168000,        2100,-1.43894e-12
571,      188000,        2100,-1.43894e-12
572,      208000,        2100,-1.43894e-12
573,      228000,        2100,-1.43894e-12
574,      248000,        2100,-1.43894e-12
575,      268000,        2100,-1.43894e-12
576,      288000,        2100,-1.43894e-12
577,      308000,        2100,-1.43894e-12
578,      328000,        2100,-1.43894e-12
579,      348000,        2100,-1.43894e-12
580,      368000,        2100,-1.43894e-12
581,      388000,        2100,-1.43894e-12
582,        9000,        2100,-1.43894e-12
583,       29000,        2100,-1.43894e-12
584,       49000,        2100,-1.43894e-12
585,       69000,        2100,-1.43894e-12
586,       89000,        2100,-1.43894e-12
587,      109000,        2100,-1.43894e-12
588,      129000,        2100,-1.43894e-12
589,      149000,        2100,-1.43894e-12
590,      169000,        2100,-1.43894e-12
591,      189000,        2100,-1.43894e-12
592,      209000,        2100,-1.43894e-12
593,      229000,        2100,-1.43894e-12
594,      249000,        2100,-1.43894e-12
595,      269000,        2100,-1.43894e-12
596,      289000,        2100,-1.43894e-12
597,      309000,        2100,-1.43894e-12
598,      329000,        2100,-1.43894e-12
599,      349000,        2100,-1.43894e-12
600,      369000,        2100,-1.43894e-12
601,      389000,        2100,-1.43894e-12
602,       10000,        2100,-1.43894e-12
603,       30000,        2100,-1.43894e-12
604,       50000,        2100,-1.43894e-12
605,       70000,        2100,-1.43894e-12
606,       90000,        2100,-1.43894e-12
607,      110000,        2100,-1.43894e-12
608,      130000,        2100,-1.43894e-12
609,      150000,        2100,-1.43894e-12
610,      170000,        2100,-1.43894e-12
611,      190000,        2100,-1.43894e-12
612,      210000,        2100,-1.43894e-12
613,      230000,        2100,-1.43894e-12
614,      250000,        2100,-1.43894e-12
615,      270000,        2100,-1.43894e-12
616,      290000,        2100,-1.43894e-12
617,      310000,        2100,-1.43894e-12
618,      330000,        2100,-1.43894e-12
619,      350000,        2100,-1.43894e-12
620,      370000,        2100,-1.43894e-12
621,      390000,        2100,-1.43894e-12
622,       11000,        2100,-1.43894e-12
623,       31000,        2100,-1.43894e-12
624,       51000,        2100,-1.43894e-12
625,       71000,        2100,-1.43894e-12
626,       91000,        2100,-1.43894e-12
627,      111000,        2100,-1.43894e-12
628,      131000,        2100,-1.43894e-12
629,      151000,        2100,-1.43894e-12
630,      171000,        2100,-1.43894e-12
631,      191000,        2100,-1.43894e-12
632,      211000,        2100,-1.43894e-12
633,      231000,        2100,-1.43894e-12
634,      251000,        2100,-1.43894e-12
635,      271000,        2100,-1.43894e-12
636,      291000,        2100,-1.43894e-12
637,      311000,        2100,-1.43894e-12
638,      331000,        2100,-1.43894e-12
639,      351000,        2100,-1.43894e-12
640,      371000,        2100,-1.43894e-12
641,      391000,        2100,-1.43894e-12
642,       12000,        2100,-1.43894e-12
643,       32000,        2100,-1.43894e-12
644,       52000,        2100,-1.43894e-12
645,       72000,        2100,-1.43894e-12
646,       92000,        2100,-1.43894e-12
647,      112000,        2100,-1.43894e-12
648,      132000,        2100,-1.43894e-12
649,      152000,        2100,-1.43894e-12
650,      172000,        2100,-1.43894e-12
651,      192000,        2100,-1.43894e-12
652,      212000,        2100,-1.43894e-12
653,      232000,        2100,-1.43894e-12
654,      252000,        2100,-1.43894e-12
655,      272000,        2100,-1.43894e-12
656,      292000,        2100,-1.43894e-12
657,      312000,        2100,-1.43894e-12
658,      332000,        2100,-1.43894e-12
659,      352000,        2100,-1.43894e-12
660,      372000,        2100,-1.43894e-12
661,      392000,        2100,-1.43894e-12
662,       13000,        2100,-1.43894e-12
663,       33000,        2100,-1.43894e-12
664,       53000,        2100,-1.43894e-12
665,       73000,        2100,-1.43894e-12
666,       93000,        2100,-1.43894e-12
667,      113000,        2100,-1.43894e-12
668,      133000,        2100,-1.43894e-12
669,      153000,        2100,-1.43894e-12
670,      173000,        2100,-1.43894e-12
671,      193000,        2100,-1.43894e-12
672,      213000,        2100,-1.43894e-12
673,      233000,        2100,-1.43894e-12
674,      253000,        2100,-1.43894e-12
675,      273000,        2100,-1.43894e-12
676,      293000,        2100,-1.43894e-12
677,      313000,        2100,-1.43894e-12
678,      333000,        2100,-1.43894e-12
679,      353000,        2100,-1.43894e-12
680,      373000,        2100,-1.43894e-12
681,      393000,        2100,-1.43894e-12
682,       14000,        2100,-1.43894e-12
683,       34000,        2100,-1.43894e-12
684,       54000,        2100,-1.43894e-12
685,       74000,        2100,-1.43894e-12
686,       94000,        2100,-1.43894e-12
687,      114000,        2100,-1.43894e-12
688,      134000,        2100,-1.43894e-12
689,      154000,        2100,-1.43894e-12
690,      174000,        2100,-1.43894e-12
691,      194000,        2100,-1.43894e-12
692,      214000,        2100,-1.43894e-12
693,      234000,        2100,-1.43894e-12
694,      254000,        2100,-1.43894e-12
695,      274000,        2100,-1.43894e-12
696,      294000,        2100,-1.43894e-12
697,      314000,        2100,-1.43894e-12
698,      334000,        2100,-1.43894e-12
699,      354000,        2100,-1.43894e-12
700,      374000,        2100,-1.43894e-12
701,      394000,        2100,-1.43894e-12
702,       15000,        2100,-1.43894e-12
703,       35000,        2100,-1.43894e-12
704,       55000,        2100,-1.43894e-12
705,       75000,        2100,-1.43894e-12
706,       95000,        2100,-1.43894e-12
707,      115000,        2100,-1.43894e-12
708,      135000,        2100,-1.43894e-12
709,      155000,        2100,-1.43894e-12
710,      175000,        2100,-1.43894e-12
711,      195000,        2100,-1.43894e-12
712,      215000,        2100,-1.43894e-12
713,      235000,        2100,-1.43894e-12
714,      255000,        2100,-1.43894e-12
715,      275000,        2100,-1.43894e-12
716,      295000,        2100,-1.43894e-12
717,      315000,        2100,-1.43894e-12
718,      335000,        2100,-1.43894e-12
719,      355000,        2100,-1.43894e-12
720,      375000,        2100,-1.43894e-12
721,      395000,        2100,-1.43894e-12
722,       16000,        2100,-1.43894e-12
723,       36000,        2100,-1.43894e-12
724,       56000,        2100,-1.43894e-12
725,       76000,        2100,-1.43894e-12
726,       96000,        2100,-1.43894e-12
727,      116000,        2100,-1.43894e-12
728,      136000,        2100,-1.43894e-12
729,      156000,        2100,-1.43894e-12
730,      176000,        2100,-1.43894e-12
731,      196000,        2100,-1.43894e-12
732,      216000,        2100,-1.43894e-12
733,      236000,        2100,-1.43894e-12
734,      256000,        2100,-1.43894e-12
735,      276000,        2100,-1.43894e-12
736,      296000,        2100,-1.43894e-12
737,      316000,        2100,-1.43894e-12
738,      336000,        2100,-1.43894e-12
739,      356000,        2100,-1.43894e-12
740,      376000,        2100,-1.43894e-12
741,      396000,        2100,-1.43894e-12
742,       17000,        2100,-1.43894e-12
743,       37000,        2100,-1.43894e-12
744,       57000,        2100,-1.43894e-12
745,       77000,        2100,-1.43894e-12
746,       97000,        2100,-1.43894e-12
747,      117000,        2100,-1.43894e-12
748,      137000,        2100,-1.43894e-12
749,      157000,        2100,-1.43894e-12
750,      177000,        2100,-1.43894e-12
751,      197000,        2100,-1.43894e-12
752,      217000,        2100,-1.43894e-12
753,      237000,        2100,-1.43894e-12
754,      257000,        2100,-1.43894e-12
755,      277000,        2100,-1.43894e-12
756,      297000,        2100,-1.43894e-12
757,      317000,        2100,-1.43894e-12
758,      337000,        2100,-1.43894e-12
759,      357000,        2100,-1.43894e-12
760,      377000,        2100,-1.43894e-12
761,      397000,        2100,-1.43894e-12
762,       18000,        2100,-1.43894e-12
763,       38000,        2100,-1.43894e-12
764,       58000,        2100,-1.43894e-12
765,       78000,        2100,-1.43894e-12
766,       98000,        2100,-1.43894e-12
767,      118000,        2100,-1.43894e-12
768,      138000,        2100,-1.43894e-12
769,      158000,        2100,-1.43894e-12
770,      178000,        2100,-1.43894e-12
771,      198000,        2100,-1.43894e-12
772,      218000,        2100,-1.43894e-12
773,      238000,        2100,-1.43894e-12
774,      258000,        2100,-1.43894e-12
775,      278000,        2100,-1.43894e-12
776,      298000,        2100,-1.43894e-12
777,      318000,        2100,-1.43894e-12
778,      338000,        2100,-1.43894e-12
779,      358000,        2100,-1.43894e-12
780,      378000,        2100,-1.43894e-12
781,      398000,        2100,-1.43894e-12
782,       19000,        2100,-1.43894e-12
783,       39000,        2100,-1.43894e-12
784,       59000,        2100,-1.43894e-12
785,       79000,        2100,-1.43894e-12
786,       99000,        2100,-1.43894e-12
787,      119000,        2100,-1.43894e-12
788,      139000,        2100,-1.43894e-12
789,      159000,        2100,-1.43894e-12
790,      179000,        2100,-1.43894e-12
791,      199000,        2100,-1.43894e-12
792,      219000,        2100,-1.43894e-12
793,      239000,        2100,-1.43894e-12
794,      259000,        2100,-1.43894e-12
795,      279000,        2100,-1.43894e-12
796,      299000,        2100,-1.43894e-12
797,      319000,        2100,-1.43894e-12
798,      339000,        2100,-1.43894e-12
799,      359000,        2100,-1.43894e-12
800,      379000,        2100,-1.43894e-12
801,      399000,        2100,-1.43894e-12
802,      400000,        2100,-1.43894e-12
803,           0,        4200,-1.43894e-12
804,        1000,        4200,-1.43894e-12
805,       20000,        4200,-1.43894e-12
806,       21000,        4200,-1.43894e-12
807,       40000,        4200,-1.43894e-12
808,       41000,        4200,-1.43894e-12
809,       60000,        4200,-1.43894e-12
810,       61000,        4200,-1.43894e-12
811,       80000,        4200,-1.43894e-12
812,       81000,        4200,-1.43894e-12
813,      100000,        4200,-1.43894e-12
814,      101000,        4200,-1.43894e-12
815,      120000,        4200,-1.43894e-12
816,      121000,        4200,-1.43894e-12
817,      140000,        4200,-1.43894e-12
818,      141000,        4200,-1.43894e-12
819,      160000,        4200,-1.43894e-12
820,      161000,        4200,-1.43894e-12
821,      180000,        4200,-1.43894e-12
822,      181000,        4200,-1.43894e-12
823,      200000,        4200,-1.43894e-12
824,      201000,        4200,-1.43894e-12
825,      220000,        4200,-1.43894e-12
826,      221000,        4200,-1.43894e-12
827,      240000,        4200,-1.43894e-12
828,      241000,        4200,-1.43894e-12
829,      260000,        4200,-1.43894e-12
830,      261000,        4200,-1.43894e-12
831,      280000,        4200,-1.43894e-12
832,      281000,        4200,-1.43894e-12
833,      300000,        4200,-1.43894e-12
834,      301000,        4200,-1.43894e-12
835,      320000,        4200,-1.43894e-12
836,      321000,        4200,-1.43894e-12
837,      340000,        4200,-1.43894e-12
838,      341000,        4200,-1.43894e-12
839,      360000,        4200,-1.43894e-12
840,      361000,        4200,-1.43894e-12
841,      380000,        4200,-1.43894e-12
842,      381000,        4200,-1.43894e-12
843,        2000,        4200,-1.43894e-12
844,       22000,        4200,-1.43894e-12
845,       42000,        4200,-1.43894e-12
846,       62000,        4200,-1.43894e-12
847,       82000,        4200,-1.43894e-12
848,      102000,        4200,-1.43894e-12
849,      122000,        4200,-1.43894e-12
850,      142000,        4200,-1.43894e-12
851,      162000,        4200,-1.43894e-12
852,      182000,        4200,-1.43894e-12
853,      202000,        4200,-1.43894e-12
854,      222000,        4200,-1.43894e-12
855,      242000,        4200,-1.43894e-12
856,      262000,        4200,-1.43894e-12
857,      282000,        4200,-1.43894e-12
858,      302000,        4200,-1.43894e-12
859,      322000,        4200,-1.43894e-12
860,      342000,        4200,-1.43894e-12
861,      362000,        4200,-1.43894e-12
862,      382000,        4200,-1.43894e-12
863,        3000,        4200,-1.43894e-12
864,       23000,        4200,-1.43894e-12
865,       43000,        4200,-1.43894e-12
866,       63000,        4200,-1.43894e-12
867,       83000,        4200,-1.43894e-12
868,      103000,        4200,-1.43894e-12
869,      123000,        4200,-1.43894e-12
870,      143000,        4200,-1.43894e-12
871,      163000,        4200,-1.43894e-12
872,      183000,        4200,-1.43894e-12
873,      203000,        4200,-1.43894e-12
874,      223000,        4200,-1.43894e-12
875,      243000,        4200,-1.43894e-12
876,      263000,        4200,-1.43894e-12
877,      283000,        4200,-1.43894e-12
878,      303000,        4200,-1.43894e-12
879,      323000,        4200,-1.43894e-12
880,      343000,        4200,-1.43894e-12
881,      363000,        4200,-1.43894e-12
882,      383000,        4200,-1.43894e-12
883,        4000,        4200,-1.43894e-12
884,       24000,        4200,-1.43894e-12
885,       44000,        4200,-1.43894e-12
886,       64000,        4200,-1.43894e-12
887,       84000,        4200,-1.43894e-12
888,      104000,        4200,-1.43894e-12
889,      124000,        4200,-1.43894e-12
890,      144000,        4200,-1.43894e-12
891,      164000,        4200,-1.43894e-12
892,      184000,        4200,-1.43894e-12
893,      204000,        4200,-1.43894e-12
894,      224000,        4200,-1.43894e-12
895,      244000,        4200,-1.43894e-12
896,      264000,        4200,-1.43894e-12
897,      284000,        4200,-1.43894e-12
898,      304000,        4200,-1.43894e-12
899,      324000,        4200,-1.43894e-12
900,      344000,        4200,-1.43894e-12
901,      364000,        4200,-1.43894e-12
902,      384000,        4200,-1.43894e-12
903,        5000,        4200,-1.43894e-12
904,       25000,        4200,-1.43894e-12
905,       45000,        4200,-1.43894e-12
906,       65000,        4200,-1.43894e-12
907,       85000,        4200,-1.43894e-12
908,      105000,        4200,-1.43894e-12
909,      125000,        4200,-1.43894e-12
910,      145000,        4200,-1.43894e-12
911,      165000,        4200,-1.43894e-12
912,      185000,        4200,-1.43894e-12
913,      205000,        4200,-1.43894e-12
914,      225000,        4200,-1.43894e-12
915,      245000,        4200,-1.43894e-12
916,      265000,        4200,-1.43894e-12
917,      285000,        4200,-1.43894e-12
918,      305000,        4200,-1.43894e-12
919,      325000,        4200,-1.43894e-12
920,      345000,        4200,-1.43894e-12
921,      365000,        4200,-1.43894e-12
922,      385000,        4200,-1.43894e-12
923,        6000,        4200,-1.43894e-12
924,       26000,        4200,-1.43894e-12
925,       46000,        4200,-1.43894e-12
926,       66000,        4200,-1.43894e-12
927,       86000,        4200,-1.43894e-12
928,      106000,        4200,-1.43894e-12
929,      126000,        4200,-1.43894e-12
930,      146000,        4200,-1.43894e-12
931,      166000,        4200,-1.43894e-12
932,      186000,        4200,-1.43894e-12
933,      206000,        4200,-1.43894e-12
934,      226000,        4200,-1.43894e-12
935,      246000,        4200,-1.43894e-12
936,      266000,        4200,-1.43894e-12
937,      286000,        4200,-1.43894e-12
938,      306000,        4200,-1.43894e-12
939,      326000,        4200,-1.43894e-12
940,      346000,        4200,-1.43894e-12
941,      366000,        4200,-1.43894e-12
942,      386000,        4200,-1.43894e-12
943,        7000,        4200,-1.43894e-12
944,       27000,        4200,-1.43894e-12
945,       47000,        4200,-1.43894e-12
946,       67000,        4200,-1.43894e-12
947,       87000,        4200,-1.43894e-12
948,      107000,        4200,-1.43894e-12
949,      127000,        4200,-1.43894e-12
950,      147000,        4200,-1.43894e-12
951,      167000,        4200,-1.43894e-12
952,      187000,        4200,-1.43894e-12
953,      207000,        4200,-1.43894e-12
954,      227000,        4200,-1.43894e-12
955,      247000,        4200,-1.43894e-12
956,      267000,        4200,-1.43894e-12
957,      287000,        4200,-1.43894e-12
958,      307000,        4200,-1.43894e-12
959,      327000,        4200,-1.43894e-12
960,      347000,        4200,-1.43894e-12
961,      367000,        4200,-1.43894e-12
962,      387000,        4200,-1.43894e-12
963,        8000,        4200,-1.43894e-12
964,       28000,        4200,-1.43894e-12
965,       48000,        4200,-1.43894e-12
966,       68000,        4200,-1.43894e-12
967,       88000,        4200,-1.43894e-12
968,      108000,        4200,-1.43894e-12
969,      128000,        4200,-1.43894e-12
970,      148000,        4200,-1.43894e-12
971,      168000,        4200,-1.43894e-12
972,      188000,        4200,-1.43894e-12
973,      208000,        4200,-1.43894e-12
974,      228000,        4200,-1.43894e-12
975,      248000,        4200,-1.43894e-12
976,      268000,        4200,-1.43894e-12
977,      288000,        4200,-1.43894e-12
978,      308000,        4200,-1.43894e-12
979,      328000,        4200,-1.43894e-12
980,      348000,        4200,-1.43894e-12
981,      368000,        4200,-1.43894e-12
982,      388000,        4200,-1.43894e-12
983,        9000,        4200,-1.43894e-12
984,       29000,        4200,-1.43894e-12
985,       49000,        4200,-1.43894e-12
986,       69000,        4200,-1.43894e-12
987,       89000,        4200,-1.43894e-12
988,      109000,        4200,-1.43894e-12
989,      129000,        4200,-1.43894e-12
990,      149000,        4200,-1.43894e-12
991,      169000,        4200,-1.43894e-12
992,      189000,        4200,-1.43894e-12
993,      209000,        4200,-1.43894e-12
994,      229000,        4200,-1.43894e-12
995,      249000,        4200,-1.43894e-12
996,      269000,        4200,-1.43894e-12
997,      289000,        4200,-1.43894e-12
998,      309000,        4200,-1.43894e-12
999,      329000,        4200,-1.43894e-12
1000,      349000,        4200,-1.43894e-12
1001,      369000,        4200,-1.43894e-12
1002,      389000,        4200,-1.43894e-12
1003,       10000,        4200,-1.43894e-12
1004,       30000,        4200,-1.43894e-12
1005,       50000,        4200,-1.43894e-12
1006,       70000,        4200,-1.43894e-12
1007,       90000,        4200,-1.43894e-12
1008,      110000,        4200,-1.43894e-12
1009,      130000,        4200,-1.43894e-12
1010,      150000,        4200,-1.43894e-12
1011,      170000,        4200,-1.43894e-12
1012,      190000,        4200,-1.43894e-12
1013,      210000,        4200,-1.43894e-12
1014,      230000,        4200,-1.43894e-12
1015,      250000,        4200,-1.43894e-12
1016,      270000,        4200,-1.43894e-12
1017,      290000,        4200,-1.43894e-12
1018,      310000,        4200,-1.43894e-12
1019,      330000,        4200,-1.43894e-12
1020,      350000,        4200,-1.43894e-12
1021,      370000,        4200,-1.43894e-12
1022,      390000,        4200,-1.43894e-12
1023,       11000,        4200,-1.43894e-12
1024,       31000,        4200,-1.43894e-12
1025,       51000,        4200,-1.43894e-12
1026,       71000,        4200,-1.43894e-12
1027,       91000,        4200,-1.43894e-12
1028,      111000,        4200,-1.43894e-12
1029,      131000,        4200,-1.43894e-12
1030,      151000,        4200,-1.43894e-12
1031,      171000,        4200,-1.43894e-12
1032,      191000,        4200,-1.43894e-12
1033,      211000,        4200,-1.43894e-12
1034,      231000,        4200,-1.43894e-12
1035,      251000,        4200,-1.43894e-12
1036,      271000,        4200,-1.43894e-12
1037,      291000,        4200,-1.43894e-12
1038,      311000,        4200,-1.43894e-12
1039,      331000,        4200,-1.43894e-12
1040,      351000,        4200,-1.43894e-12
1041,      371000,        4200,-1.43894e-12
1042,      391000,        4200,-1.43894e-12
1043,       12000,        4200,-1.43894e-12
1044,       32000,        4200,-1.43894e-12
1045,       52000,        4200,-1.43894e-12
1046,       72000,        4200,-1.43894e-12
1047,       92000,        4200,-1.43894e-12
1048,      112000,        4200,-1.43894e-12
1049,      132000,        4200,-1.43894e-12
1050,      152000,        4200,-1.43894e-12
1051,      172000,        4200,-1.43894e-12
1052,      192000,        4200,-1.43894e-12
1053,      212000,        4200,-1.43894e-12
1054,      232000,        4200,-1.43894e-12
1055,      252000,        4200,-1.43894e-12
1056,      272000,        4200,-1.43894e-12
1057,      292000,        4200,-1.43894e-12
1058,      312000,        4200,-1.43894e-12
1059,      332000,        4200,-1.43894e-12
1060,      352000,        4200,-1.43894e-12
1061,      372000,        4200,-1.43894e-12
1062,      392000,        4200,-1.43894e-12
1063,       13000,        4200,-1.43894e-12
1064,       33000,        4200,-1.43894e-12
1065,       53000,        4200,-1.43894e-12
1066,       73000,        4200,-1.43894e-12
1067,       93000,        4200,-1.43894e-12
1068,      113000,        4200,-1.43894e-12
1069,      133000,        4200,-1.43894e-12
1070,      153000,        4200,-1.43894e-12
1071,      173000,        4200,-1.43894e-12
1072,      193000,        4200,-1.43894e-12
1073,      213000,        4200,-1.43894e-12
1074,      233000,        4200,-1.43894e-12
1075,      253000,        4200,-1.43894e-12
1076,      273000,        4200,-1.43894e-12
1077,      293000,        4200,-1.43894e-12
1078,      313000,        4200,-1.43894e-12
1079,      333000,        4200,-1.43894e-12
1080,      353000,        4200,-1.43894e-12
1081,      373000,        4200,-1.43894e-12
1082,      393000,        4200,-1.43894e-12
1083,       14000,        4200,-1.43894e-12
1084,       34000,        4200,-1.43894e-12
1085,       54000,        4200,-1.43894e-12
1086,       74000,        4200,-1.43894e-12
1087,       94000,        4200,-1.43894e-12
1088,      114000,        4200,-1.43894e-12
1089,      134000,        4200,-1.43894e-12
1090,      154000,        4200,-1.43894e-12
1091,      174000,        4200,-1.43894e-12
1092,      194000,        4200,-1.43894e-12
1093,      214000,        4200,-1.43894e-12
1094,      234000,        4200,-1.43894e-12
1095,      254000,        4200,-1.43894e-12
1096,      274000,        4200,-1.43894e-12
1097,      294000,        4200,-1.43894e-12
1098,      314000,        4200,-1.43894e-12
1099,      334000,        4200,-1.43894e-12
1100,      354000,        4200,-1.43894e-12
1101,      374000,        4200,-1.43894e-12
1102,      394000,        4200,-1.43894e-12
1103,       15000,        4200,-1.43894e-12
1104,       35000,        4200,-1.43894e-12
1105,       55000,        4200,-1.43894e-12
1106,       75000,        4200,-1.43894e-12
1107,       95000,        4200,-1.43894e-12
1108,      115000,        4200,-1.43894e-12
1109,      135000,        4200,-1.43894e-12
1110,      155000,        4200,-1.43894e-12
1111,      175000,        4200,-1.43894e-12
1112,      195000,        4200,-1.43894e-12
1113,      215000,        4200,-1.43894e-12
1114,      235000,        4200,-1.43894e-12
1115,      255000,        4200,-1.43894e-12
1116,      275000,        4200,-1.43894e-12
1117,      295000,        4200,-1.43894e-12
1118,      315000,        4200,-1.43894e-12
1119,      335000,        4200,-1.43894e-12
1120,      355000,        4200,-1.43894e-12
1121,      375000,        4200,-1.43894e-12
1122,      395000,        4200,-1.43894e-12
1123,       16000,        4200,-1.43894e-12
1124,       36000,        4200,-1.43894e-12
1125,       56000,        4200,-1.43894e-12
1126,       76000,        4200,-1.43894e-12
1127,       96000,        4200,-1.43894e-12
1128,      116000,        4200,-1.43894e-12
1129,      136000,        4200,-1.43894e-12
1130,      156000,        4200,-1.43894e-12
1131,      176000,        4200,-1.43894e-12
1132,      196000,        4200,-1.43894e-12
1133,      216000,        4200,-1.43894e-12
1134,      236000,        4200,-1.43894e-12
1135,      256000,        4200,-1.43894e-12
1136,      276000,        4200,-1.43894e-12
1137,      296000,        4200,-1.43894e-12
1138,      316000,        4200,-1.43894e-12
1139,      336000,        4200,-1.43894e-12
1140,      356000,        4200,-1.43894e-12
1141,      376000,        4200,-1.43894e-12
1142,      396000,        4200,-1.43894e-12
1143,       17000,        4200,-1.43894e-12
1144,       37000,        4200,-1.43894e-12
1145,       57000,        4200,-1.43894e-12
1146,       77000,        4200,-1.43894e-12
1147,       97000,        4200,-1.43894e-12
1148,      117000,        4200,-1.43894e-12
1149,      137000,        4200,-1.43894e-12
1150,      157000,        4200,-1.43894e-12
1151,      177000,        4200,-1.43894e-12
1152,      197000,        4200,-1.43894e-12
1153,      217000,        4200,-1.43894e-12
1154,      237000,        4200,-1.43894e-12
1155,      257000,        4200,-1.43894e-12
1156,      277000,        4200,-1.43894e-12
1157,      297000,        4200,-1.43894e-12
1158,      317000,        4200,-1.43894e-12
1159,      337000,        4200,-1.43894e-12
1160,      357000,        4200,-1.43894e-12
1161,      377000,        4200,-1.43894e-12
1162,      397000,        4200,-1.43894e-12
1163,       18000,        4200,-1.43894e-12
1164,       38000,        4200,-1.43894e-12
1165,       58000,        4200,-1.43894e-12
1166,       78000,        4200,-1.43894e-12
1167,       98000,        4200,-1.43894e-12
1168,      118000,        4200,-1.43894e-12
1169,      138000,        4200,-1.43894e-12
1170,      158000,        4200,-1.43894e-12
1171,      178000,        4200,-1.43894e-12
1172,      198000,        4200,-1.43894e-12
1173,      218000,        4200,-1.43894e-12
1174,      238000,        4200,-1.43894e-12
1175,      258000,        4200,-1.43894e-12
1176,      278000,        4200,-1.43894e-12
1177,      298000,        4200,-1.43894e-12
1178,      318000,        4200,-1.43894e-12
1179,      338000,        4200,-1.43894e-12
1180,      358000,        4200,-1.43894e-12
1181,      378000,        4200,-1.43894e-12
1182,      398000,        4200,-1.43894e-12
1183,       19000,        4200,-1.43894e-12
1184,       39000,        4200,-1.43894e-12
1185,       59000,        4200,-1.43894e-12
1186,       79000,        4200,-1.43894e-12
1187,       99000,        4200,-1.43894e-12
1188,      119000,        4200,-1.43894e-12
1189,      139000,        4200,-1.43894e-12
1190,      159000,        4200,-1.43894e-12
1191,      179000,        4200,-1.43894e-12
1192,      199000,        4200,-1.43894e-12
1193,      219000,        4200,-1.43894e-12
1194,      239000,        4200,-1.43894e-12
1195,      259000,        4200,-1.43894e-12
1196,      279000,        4200,-1.43894e-12
1197,      299000,        4200,-1.43894e-12
1198,      319000,        4200,-1.43894e-12
1199,      339000,        4200,-1.43894e-12
1200,      359000,        4200,-1.43894e-12
1201,      379000,        4200,-1.43894e-12
1202,      399000,        4200,-1.43894e-12
1203,      400000,        4200,-1.43894e-12
1204,           0,       -2100,-1.43894e-12
1205,        1000,       -2100,-1.43894e-12
1206,       20000,       -2100,-1.43894e-12
1207,       21000,       -2100,-1.43894e-12
1208,       40000,       -2100,-1.43894e-12
1209,       41000,       -2100,-1.43894e-12
1210,       60000,       -2100,-1.43894e-12
1211,       61000,       -2100,-1.43894e-12
1212,       80000,       -2100,-1.43894e-12
1213,       81000,       -2100,-1.43894e-12
1214,      100000,       -2100,-1.43894e-12
1215,      101000,       -2100,-1.43894e-12
1216,      120000,       -2100,-1.43894e-12
1217,      121000,       -2100,-1.43894e-12
1218,      140000,       -2100,-1.43894e-12
1219,      141000,       -2100,-1.43894e-12
1220,      160000,       -2100,-1.43894e-12
1221,      161000,       -2100,-1.43894e-12
1222,      180000,       -2100,-1.43894e-12
1223,      181000,       -2100,-1.43894e-12
1224,      200000,       -2100,-1.43894e-12
1225,      201000,       -2100,-1.43894e-12
1226,      220000,       -2100,-1.43894e-12
1227,      221000,       -2100,-1.43894e-12
1228,      240000,       -2100,-1.43894e-12
1229,      241000,       -2100,-1.43894e-12
1230,      260000,       -2100,-1.43894e-12
1231,      261000,       -2100,-1.43894e-12
1232,      280000,       -2100,-1.43894e-12
1233,      281000,       -2100,-1.43894e-12
1234,      300000,       -2100,-1.43894e-12
1235,      301000,       -2100,-1.43894e-12
1236,      320000,       -2100,-1.43894e-12
1237,      321000,       -2100,-1.43894e-12
1238,      340000,       -2100,-1.43894e-12
1239,      341000,       -2100,-1.43894e-12
1240,      360000,       -2100,-1.43894e-12
1241,      361000,       -2100,-1.43894e-12
1242,      380000,       -2100,-1.43894e-12
1243,      381000,       -2100,-1.43894e-12
1244,        2000,       -2100,-1.43894e-12
1245,       22000,       -2100,-1.43894e-12
1246,       42000,       -2100,-1.43894e-12
1247,       62000,       -2100,-1.43894e-12
1248,       82000,       -2100,-1.43894e-12
1249,      102000,       -2100,-1.43894e-12
1250,      122000,       -2100,-1.43894e-12
1251,      142000,       -2100,-1.43894e-12
1252,      162000,       -2100,-1.43894e-12
1253,      182000,       -2100,-1.43894e-12
1254,      202000,       -2100,-1.43894e-12
1255,      222000,       -2100,-1.43894e-12
1256,      242000,       -2100,-1.43894e-12
1257,      262000,       -2100,-1.43894e-12
1258,      282000,       -2100,-1.43894e-12
1259,      302000,       -2100,-1.43894e-12
1260,      322000,       -2100,-1.43894e-12
1261,      342000,       -2100,-1.43894e-12
1262,      362000,       -2100,-1.43894e-12
1263,      382000,       -2100,-1.43894e-12
1264,        3000,       -2100,-1.43894e-12
1265,       23000,       -2100,-1.43894e-12
1266,       43000,       -2100,-1.43894e-12
1267,       63000,       -2100,-1.43894e-12
1268,       83000,       -2100,-1.43894e-12
1269,      103000,       -2100,-1.43894e-12
1270,      123000,       -2100,-1.43894e-12
1271,      143000,       -2100,-1.43894e-12
1272,      163000,       -2100,-1.43894e-12
1273,      183000,       -2100,-1.43894e-12
1274,      203000,       -2100,-1.43894e-12
1275,      223000,       -2100,-1.43894e-12
1276,      243000,       -2100,-1.43894e-12
1277,      263000,       -2100,-1.43894e-12
1278,      283000,       -2100,-1.43894e-12
1279,      303000,       -2100,-1.43894e-12
1280,      323000,       -2100,-1.43894e-12
1281,      343000,       -2100,-1.43894e-12
1282,      363000,       -2100,-1.43894e-12
1283,      383000,       -2100,-1.43894e-12
1284,        4000,       -2100,-1.43894e-12
1285,       24000,       -2100,-1.43894e-12
1286,       44000,       -2100,-1.43894e-12
1287,       64000,       -2100,-1.43894e-12
1288,       84000,       -2100,-1.43894e-12
1289,      104000,       -2100,-1.43894e-12
1290,      124000,       -2100,-1.43894e-12
1291,      144000,       -2100,-1.43894e-12
1292,      164000,       -2100,-1.43894e-12
1293,      184000,       -2100,-1.43894e-12
1294,      204000,       -2100,-1.43894e-12
1295,      224000,       -2100,-1.43894e-12
1296,      244000,       -2100,-1.43894e-12
1297,      264000,       -2100,-1.43894e-12
1298,      284000,       -2100,-1.43894e-12
1299,      304000,       -2100,-1.43894e-12
1300,      324000,       -2100,-1.43894e-12
1301,      344000,       -2100,-1.43894e-12
1302,      364000,       -2100,-1.43894e-12
1303,      384000,       -2100,-1.43894e-12
1304,        5000,       -2100,-1.43894e-12
1305,       25000,       -2100,-1.43894e-12
1306,       45000,       -2100,-1.43894e-12
1307,       65000,       -2100,-1.43894e-12
1308,       85000,       -2100,-1.43894e-12
1309,      105000,       -2100,-1.43894e-12
1310,      125000,       -2100,-1.43894e-12
1311,      145000,       -2100,-1.43894e-12
1312,      165000,       -2100,-1.43894e-12
1313,      185000,       -2100,-1.43894e-12
1314,      205000,       -2100,-1.43894e-12
1315,      225000,       -2100,-1.43894e-12
1316,      245000,       -2100,-1.43894e-12
1317,      265000,       -2100,-1.43894e-12
1318,      285000,       -2100,-1.43894e-12
1319,      305000,       -2100,-1.43894e-12
1320,      325000,       -2100,-1.43894e-12
1321,      345000,       -2100,-1.43894e-12
1322,      365000,       -2100,-1.43894e-12
1323,      385000,       -2100,-1.43894e-12
1324,        6000,       -2100,-1.43894e-12
1325,       26000,       -2100,-1.43894e-12
1326,       46000,       -2100,-1.43894e-12
1327,       66000,       -2100,-1.43894e-12
1328,       86000,       -2100,-1.43894e-12
1329,      106000,       -2100,-1.43894e-12
1330,      126000,       -2100,-1.43894e-12
1331,      146000,       -2100,-1.43894e-12
1332,      166000,       -2100,-1.43894e-12
1333,      186000,       -2100,-1.43894e-12
1334,      206000,       -2100,-1.43894e-12
1335,      226000,       -2100,-1.43894e-12
1336,      246000,       -2100,-1.43894e-12
1337,      266000,       -2100,-1.43894e-12
1338,      286000,       -2100,-1.43894e-12
1339,      306000,       -2100,-1.43894e-12
1340,      326000,       -2100,-1.43894e-12
1341,      346000,       -2100,-1.43894e-12
1342,      366000,       -2100,-1.43894e-12
1343,      386000,       -2100,-1.43894e-12
1344,        7000,       -2100,-1.43894e-12
1345,       27000,       -2100,-1.43894e-12
1346,       47000,       -2100,-1.43894e-12
1347,       67000,       -2100,-1.43894e-12
1348,       87000,       -2100,-1.43894e-12
1349,      107000,       -2100,-1.43894e-12
1350,      127000,       -2100,-1.43894e-12
1351,      147000,       -2100,-1.43894e-12
1352,      167000,       -2100,-1.43894e-12
1353,      187000,       -2100,-1.43894e-12
1354,      207000,       -2100,-1.43894e-12
1355,      227000,       -2100,-1.43894e-12
1356,      247000,       -2100,-1.43894e-12
1357,      267000,       -2100,-1.43894e-12
1358,      287000,       -2100,-1.43894e-12
1359,      307000,       -2100,-1.43894e-12
1360,      327000,       -2100,-1.43894e-12
1361,      347000,       -2100,-1.43894e-12
1362,      367000,       -2100,-1.43894e-12
1363,      387000,       -2100,-1.43894e-12
1364,        8000,       -2100,-1.43894e-12
1365,       28000,       -2100,-1.43894e-12
1366,       48000,       -2100,-1.43894e-12
1367,       68000,       -2100,-1.43894e-12
1368,       88000,       -2100,-1.43894e-12
1369,      108000,       -2100,-1.43894e-12
1370,      128000,       -2100,-1.43894e-12
1371,      148000,       -2100,-1.43894e-12
1372,      168000,       -2100,-1.43894e-12
1373,      188000,       -2100,-1.43894e-12
1374,      208000,       -2100,-1.43894e-12
1375,      228000,       -2100,-1.43894e-12
1376,      248000,       -2100,-1.43894e-12
1377,      268000,       -2100,-1.43894e-12
1378,      288000,       -2100,-1.43894e-12
1379,      308000,       -2100,-1.43894e-12
1380,      328000,       -2100,-1.43894e-12
1381,      348000,       -2100,-1.43894e-12
1382,      368000,       -2100,-1.43894e-12
1383,      388000,       -2100,-1.43894e-12
1384,        9000,       -2100,-1.43894e-12
1385,       29000,       -2100,-1.43894e-12
1386,       49000,       -2100,-1.43894e-12
1387,       69000,       -2100,-1.43894e-12
1388,       89000,       -2100,-1.43894e-12
1389,      109000,       -2100,-1.43894e-12
1390,      129000,       -2100,-1.43894e-12
1391,      149000,       -2100,-1.43894e-12
1392,      169000,       -2100,-1.43894e-12
1393,      189000,       -2100,-1.43894e-12
1394,      209000,       -2100,-1.43894e-12
1395,      229000,       -2100,-1.43894e-12
1396,      249000,       -2100,-1.43894e-12
1397,      269000,       -2100,-1.43894e-12
1398,      289000,       -2100,-1.43894e-12
1399,      309000,       -2100,-1.43894e-12
1400,      329000,       -2100,-1.43894e-12
1401,      349000,       -2100,-1.43894e-12
1402,      369000,       -2100,-1.43894e-12
1403,      389000,       -2100,-1.43894e-12
1404,       10000,       -2100,-1.43894e-12
1405,       30000,       -2100,-1.43894e-12
1406,       50000,       -2100,-1.43894e-12
1407,       70000,       -2100,-1.43894e-12
1408,       90000,       -2100,-1.43894e-12
1409,      110000,       -2100,-1.43894e-12
1410,      130000,       -2100,-1.43894e-12
1411,      150000,       -2100,-1.43894e-12
1412,      170000,       -2100,-1.43894e-12
1413,      190000,       -2100,-1.43894e-12
1414,      210000,       -2100,-1.43894e-12
1415,      230000,       -2100,-1.43894e-12
1416,      250000,       -2100,-1.43894e-12
1417,      270000,       -2100,-1.43894e-12
1418,      290000,       -2100,-1.43894e-12
1419,      310000,       -2100,-1.43894e-12
1420,      330000,       -2100,-1.43894e-12
1421,      350000,       -2100,-1.43894e-12
1422,      370000,       -2100,-1.43894e-12
1423,      390000,       -2100,-1.43894e-12
1424,       11000,       -2100,-1.43894e-12
1425,       31000,       -2100,-1.43894e-12
1426,       51000,       -2100,-1.43894e-12
1427,       71000,       -2100,-1.43894e-12
1428,       91000,       -2100,-1.43894e-12
1429,      111000,       -2100,-1.43894e-12
1430,      131000,       -2100,-1.43894e-12
1431,      151000,       -2100,-1.43894e-12
1432,      171000,       -2100,-1.43894e-12
1433,      191000,       -2100,-1.43894e-12
1434,      211000,       -2100,-1.43894e-12
1435,      231000,       -2100,-1.43894e-12
1436,      251000,       -2100,-1.43894e-12
1437,      271000,       -2100,-1.43894e-12
1438,      291000,       -2100,-1.43894e-12
1439,      311000,       -2100,-1.43894e-12
1440,      331000,       -2100,-1.43894e-12
1441,      351000,       -2100,-1.43894e-12
1442,      371000,       -2100,-1.43894e-12
1443,      391000,       -2100,-1.43894e-12
1444,       12000,       -2100,-1.43894e-12
1445,       32000,       -2100,-1.43894e-12
1446,       52000,       -2100,-1.43894e-12
1447,       72000,       -2100,-1.43894e-12
1448,       92000,       -2100,-1.43894e-12
1449,      112000,       -2100,-1.43894e-12
1450,      132000,       -2100,-1.43894e-12
1451,      152000,       -2100,-1.43894e-12
1452,      172000,       -2100,-1.43894e-12
1453,      192000,       -2100,-1.43894e-12
1454,      212000,       -2100,-1.43894e-12
1455,      232000,       -2100,-1.43894e-12
1456,      252000,       -2100,-1.43894e-12
1457,      272000,       -2100,-1.43894e-12
1458,      292000,       -2100,-1.43894e-12
1459,      312000,       -2100,-1.43894e-12
1460,      332000,       -2100,-1.43894e-12
1461,      352000,       -2100,-1.43894e-12
1462,      372000,       -2100,-1.43894e-12
1463,      392000,       -2100,-1.43894e-12
1464,       13000,       -2100,-1.43894e-12
1465,       33000,       -2100,-1.43894e-12
1466,       53000,       -2100,-1.43894e-12
1467,       73000,       -2100,-1.43894e-12
1468,       93000,       -2100,-1.43894e-12
1469,      113000,       -2100,-1.43894e-12
1470,      133000,       -2100,-1.43894e-12
1471,      153000,       -2100,-1.43894e-12
1472,      173000,       -2100,-1.43894e-12
1473,      193000,       -2100,-1.43894e-12
1474,      213000,       -2100,-1.43894e-12
1475,      233000,       -2100,-1.43894e-12
1476,      253000,       -2100,-1.43894e-12
1477,      273000,       -2100,-1.43894e-12
1478,      293000,       -2100,-1.43894e-12
1479,      313000,       -2100,-1.43894e-12
1480,      333000,       -2100,-1.43894e-12
1481,      353000,       -2100,-1.43894e-12
1482,      373000,       -2100,-1.43894e-12
1483,      393000,       -2100,-1.43894e-12
1484,       14000,       -2100,-1.43894e-12
1485,       34000,       -2100,-1.43894e-12
1486,       54000,       -2100,-1.43894e-12
1487,       74000,       -2100,-1.43894e-12
1488,       94000,       -2100,-1.43894e-12
1489,      114000,       -2100,-1.43894e-12
1490,      134000,       -2100,-1.43894e-12
1491,      154000,       -2100,-1.43894e-12
1492,      174000,       -2100,-1.43894e-12
1493,      194000,       -2100,-1.43894e-12
1494,      214000,       -2100,-1.43894e-12
1495,      234000,       -2100,-1.43894e-12
1496,      254000,       -2100,-1.43894e-12
1497,      274000,       -2100,-1.43894e-12
1498,      294000,       -2100,-1.43894e-12
1499,      314000,       -2100,-1.43894e-12
1500,      334000,       -2100,-1.43894e-12
1501,      354000,       -2100,-1.43894e-12
1502,      374000,       -2100,-1.43894e-12
1503,      394000,       -2100,-1.43894e-12
1504,       15000,       -2100,-1.43894e-12
1505,       35000,       -2100,-1.43894e-12
1506,       55000,       -2100,-1.43894e-12
1507,       75000,       -2100,-1.43894e-12
1508,       95000,       -2100,-1.43894e-12
1509,      115000,       -2100,-1.43894e-12
1510,      135000,       -2100,-1.43894e-12
1511,      155000,       -2100,-1.43894e-12
1512,      175000,       -2100,-1.43894e-12
1513,      195000,       -2100,-1.43894e-12
1514,      215000,       -2100,-1.43894e-12
1515,      235000,       -2100,-1.43894e-12
1516,      255000,       -2100,-1.43894e-12
1517,      275000,       -2100,-1.43894e-12
1518,      295000,       -2100,-1.43894e-12
1519,      315000,       -2100,-1.43894e-12
1520,      335000,       -2100,-1.43894e-12
1521,      355000,       -2100,-1.43894e-12
1522,      375000,       -2100,-1.43894e-12
1523,      395000,       -2100,-1.43894e-12
1524,       16000,       -2100,-1.43894e-12
1525,       36000,       -2100,-1.43894e-12
1526,       56000,       -2100,-1.43894e-12
1527,       76000,       -2100,-1.43894e-12
1528,       96000,       -2100,-1.43894e-12
1529,      116000,       -2100,-1.43894e-12
1530,      136000,       -2100,-1.43894e-12
1531,      156000,       -2100,-1.43894e-12
1532,      176000,       -2100,-1.43894e-12
1533,      196000,       -2100,-1.43894e-12
1534,      216000,       -2100,-1.43894e-12
1535,      236000,       -2100,-1.43894e-12
1536,      256000,       -2100,-1.43894e-12
1537,      276000,       -2100,-1.43894e-12
1538,      296000,       -2100,-1.43894e-12
1539,      316000,       -2100,-1.43894e-12
1540,      336000,       -2100,-1.43894e-12
1541,      356000,       -2100,-1.43894e-12
1542,      376000,       -2100,-1.43894e-12
1543,      396000,       -2100,-1.43894e-12
1544,       17000,       -2100,-1.43894e-12
1545,       37000,       -2100,-1.43894e-12
1546,       57000,       -2100,-1.43894e-12
1547,       77000,       -2100,-1.43894e-12
1548,       97000,       -2100,-1.43894e-12
1549,      117000,       -2100,-1.43894e-12
1550,      137000,       -2100,-1.43894e-12
1551,      157000,       -2100,-1.43894e-12
1552,      177000,       -2100,-1.43894e-12
1553,      197000,       -2100,-1.43894e-12
1554,      217000,       -2100,-1.43894e-12
1555,      237000,       -2100,-1.43894e-12
1556,      257000,       -2100,-1.43894e-12
1557,      277000,       -2100,-1.43894e-12
1558,      297000,       -2100,-1.43894e-12
1559,      317000,       -2100,-1.43894e-12
1560,      337000,       -2100,-1.43894e-12
1561,      357000,       -2100,-1.43894e-12
1562,      377000,       -2100,-1.43894e-12
1563,      397000,       -2100,-1.43894e-12
1564,       18000,       -2100,-1.43894e-12
1565,       38000,       -2100,-1.43894e-12
1566,       58000,       -2100,-1.43894e-12
1567,       78000,       -2100,-1.43894e-12
1568,       98000,       -2100,-1.43894e-12
1569,      118000,       -2100,-1.43894e-12
1570,      138000,       -2100,-1.43894e-12
1571,      158000,       -2100,-1.43894e-12
1572,      178000,       -2100,-1.43894e-12
1573,      198000,       -2100,-1.43894e-12
1574,      218000,       -2100,-1.43894e-12
1575,      238000,       -2100,-1.43894e-12
1576,      258000,       -2100,-1.43894e-12
1577,      278000,       -2100,-1.43894e-12
1578,      298000,       -2100,-1.43894e-12
1579,      318000,       -2100,-1.43894e-12
1580,      338000,       -2100,-1.43894e-12
1581,      358000,       -2100,-1.43894e-12
1582,      378000,       -2100,-1.43894e-12
1583,      398000,       -2100,-1.43894e-12
1584,       19000,       -2100,-1.43894e-12
1585,       39000,       -2100,-1.43894e-12
1586,       59000,       -2100,-1.43894e-12
1587,       79000,       -2100,-1.43894e-12
1588,       99000,       -2100,-1.43894e-12
1589,      119000,       -2100,-1.43894e-12
1590,      139000,       -2100,-1.43894e-12
1591,      159000,       -2100,-1.43894e-12
1592,      179000,       -2100,-1.43894e-12
1593,      199000,       -2100,-1.43894e-12
1594,      219000,       -2100,-1.43894e-12
1595,      239000,       -2100,-1.43894e-12
1596,      259000,       -2100,-1.43894e-12
1597,      279000,       -2100,-1.43894e-12
1598,      299000,       -2100,-1.43894e-12
1599,      319000,       -2100,-1.43894e-12
1600,      339000,       -2100,-1.43894e-12
1601,      359000,       -2100,-1.43894e-12
1602,      379000,       -2100,-1.43894e-12
1603,      399000,       -2100,-1.43894e-12
1604,      400000,       -2100,-1.43894e-12
1605,           0,       -4200,-1.43894e-12
1606,        1000,       -4200,-1.43894e-12
1607,       20000,       -4200,-1.43894e-12
1608,       21000,       -4200,-1.43894e-12
1609,       40000,       -4200,-1.43894e-12
1610,       41000,       -4200,-1.43894e-12
1611,       60000,       -4200,-1.43894e-12
1612,       61000,       -4200,-1.43894e-12
1613,       80000,       -4200,-1.43894e-12
1614,       81000,       -4200,-1.43894e-12
1615,      100000,       -4200,-1.43894e-12
1616,      101000,       -4200,-1.43894e-12
1617,      120000,       -4200,-1.43894e-12
1618,      121000,       -4200,-1.43894e-12
1619,      140000,       -4200,-1.43894e-12
1620,      141000,       -4200,-1.43894e-12
1621,      160000,       -4200,-1.43894e-12
1622,      161000,       -4200,-1.43894e-12
1623,      180000,       -4200,-1.43894e-12
1624,      181000,       -4200,-1.43894e-12
1625,      200000,       -4200,-1.43894e-12
1626,      201000,       -4200,-1.43894e-12
1627,      220000,       -4200,-1.43894e-12
1628,      221000,       -4200,-1.43894e-12
1629,      240000,       -4200,-1.43894e-12
1630,      241000,       -4200,-1.43894e-12
1631,      260000,       -4200,-1.43894e-12
1632,      261000,       -4200,-1.43894e-12
1633,      280000,       -4200,-1.43894e-12
1634,      281000,       -4200,-1.43894e-12
1635,      300000,       -4200,-1.43894e-12
1636,      301000,       -4200,-1.43894e-12
1637,      320000,       -4200,-1.43894e-12
1638,      321000,       -4200,-1.43894e-12
1639,      340000,       -4200,-1.43894e-12
1640,      341000,       -4200,-1.43894e-12
1641,      360000,       -4200,-1.43894e-12
1642,      361000,       -4200,-1.43894e-12
1643,      380000,       -4200,-1.43894e-12
1644,      381000,       -4200,-1.43894e-12
1645,        2000,       -4200,-1.43894e-12
1646,       22000,       -4200,-1.43894e-12
1647,       42000,       -4200,-1.43894e-12
1648,       62000,       -4200,-1.43894e-12
1649,       82000,       -4200,-1.43894e-12
1650,      102000,       -4200,-1.43894e-12
1651,      122000,       -4200,-1.43894e-12
1652,      142000,       -4200,-1.43894e-12
1653,      162000,       -4200,-1.43894e-12
1654,      182000,       -4200,-1.43894e-12
1655,      202000,       -4200,-1.43894e-12
1656,      222000,       -4200,-1.43894e-12
1657,      242000,       -4200,-1.43894e-12
1658,      262000,       -4200,-1.43894e-12
1659,      282000,       -4200,-1.43894e-12
1660,      302000,       -4200,-1.43894e-12
1661,      322000,       -4200,-1.43894e-12
1662,      342000,       -4200,-1.43894e-12
1663,      362000,       -4200,-1.43894e-12
1664,      382000,       -4200,-1.43894e-12
1665,        3000,       -4200,-1.43894e-12
1666,       23000,       -4200,-1.43894e-12
1667,       43000,       -4200,-1.43894e-12
1668,       63000,       -4200,-1.43894e-12
1669,       83000,       -4200,-1.43894e-12
1670,      103000,       -4200,-1.43894e-12
1671,      123000,       -4200,-1.43894e-12
1672,      143000,       -4200,-1.43894e-12
1673,      163000,       -4200,-1.43894e-12
1674,      183000,       -4200,-1.43894e-12
1675,      203000,       -4200,-1.43894e-12
1676,      223000,       -4200,-1.43894e-12
1677,      243000,       -4200,-1.43894e-12
1678,      263000,       -4200,-1.43894e-12
1679,      283000,       -4200,-1.43894e-12
1680,      303000,       -4200,-1.43894e-12
1681,      323000,       -4200,-1.43894e-12
1682,      343000,       -4200,-1.43894e-12
1683,      363000,       -4200,-1.43894e-12
1684,      383000,       -4200,-1.43894e-12
1685,        4000,       -4200,-1.43894e-12
1686,       24000,       -4200,-1.43894e-12
1687,       44000,       -4200,-1.43894e-12
1688,       64000,       -4200,-1.43894e-12
1689,       84000,       -4200,-1.43894e-12
1690,      104000,       -4200,-1.43894e-12
1691,      124000,       -4200,-1.43894e-12
1692,      144000,       -4200,-1.43894e-12
1693,      164000,       -4200,-1.43894e-12
1694,      184000,       -4200,-1.43894e-12
1695,      204000,       -4200,-1.43894e-12
1696,      224000,       -4200,-1.43894e-12
1697,      244000,       -4200,-1.43894e-12
1698,      264000,       -4200,-1.43894e-12
1699,      284000,       -4200,-1.43894e-12
1700,      304000,       -4200,-1.43894e-12
1701,      324000,       -4200,-1.43894e-12
1702,      344000,       -4200,-1.43894e-12
1703,      364000,       -4200,-1.43894e-12
1704,      384000,       -4200,-1.43894e-12
1705,        5000,       -4200,-1.43894e-12
1706,       25000,       -4200,-1.43894e-12
1707,       45000,       -4200,-1.43894e-12
1708,       65000,       -4200,-1.43894e-12
1709,       85000,       -4200,-1.43894e-12
1710,      105000,       -4200,-1.43894e-12
1711,      125000,       -4200,-1.43894e-12
1712,      145000,       -4200,-1.43894e-12
1713,      165000,       -4200,-1.43894e-12
1714,      185000,       -4200,-1.43894e-12
1715,      205000,       -4200,-1.43894e-12
1716,      225000,       -4200,-1.43894e-12
1717,      245000,       -4200,-1.43894e-12
1718,      265000,       -4200,-1.43894e-12
1719,      285000,       -4200,-1.43894e-12
1720,      305000,       -4200,-1.43894e-12
1721,      325000,       -4200,-1.43894e-12
1722,      345000,       -4200,-1.43894e-12
1723,      365000,       -4200,-1.43894e-12
1724,      385000,       -4200,-1.43894e-12
1725,        6000,       -4200,-1.43894e-12
1726,       26000,       -4200,-1.43894e-12
1727,       46000,       -4200,-1.43894e-12
1728,       66000,       -4200,-1.43894e-12
1729,       86000,       -4200,-1.43894e-12
1730,      106000,       -4200,-1.43894e-12
1731,      126000,       -4200,-1.43894e-12
1732,      146000,       -4200,-1.43894e-12
1733,      166000,       -4200,-1.43894e-12
1734,      186000,       -4200,-1.43894e-12
1735,      206000,       -4200,-1.43894e-12
1736,      226000,       -4200,-1.43894e-12
1737,      246000,       -4200,-1.43894e-12
1738,      266000,       -4200,-1.43894e-12
1739,      286000,       -4200,-1.43894e-12
1740,      306000,       -4200,-1.43894e-12
1741,      326000,       -4200,-1.43894e-12
1742,      346000,       -4200,-1.43894e-12
1743,      366000,       -4200,-1.43894e-12
1744,      386000,       -4200,-1.43894e-12
1745,        7000,       -4200,-1.43894e-12
1746,       27000,       -4200,-1.43894e-12
1747,       47000,       -4200,-1.43894e-12
1748,       67000,       -4200,-1.43894e-12
1749,       87000,       -4200,-1.43894e-12
1750,      107000,       -4200,-1.43894e-12
1751,      127000,       -4200,-1.43894e-12
1752,      147000,       -4200,-1.43894e-12
1753,      167000,       -4200,-1.43894e-12
1754,      187000,       -4200,-1.43894e-12
1755,      207000,       -4200,-1.43894e-12
1756,      227000,       -4200,-1.43894e-12
1757,      247000,       -4200,-1.43894e-12
1758,      267000,       -4200,-1.43894e-12
1759,      287000,       -4200,-1.43894e-12
1760,      307000,       -4200,-1.43894e-12
1761,      327000,       -4200,-1.43894e-12
1762,      347000,       -4200,-1.43894e-12
1763,      367000,       -4200,-1.43894e-12
1764,      387000,       -4200,-1.43894e-12
1765,        8000,       -4200,-1.43894e-12
1766,       28000,       -4200,-1.43894e-12
1767,       48000,       -4200,-1.43894e-12
1768,       68000,       -4200,-1.43894e-12
1769,       88000,       -4200,-1.43894e-12
1770,      108000,       -4200,-1.43894e-12
1771,      128000,       -4200,-1.43894e-12
1772,      148000,       -4200,-1.43894e-12
1773,      168000,       -4200,-1.43894e-12
1774,      188000,       -4200,-1.43894e-12
1775,      208000,       -4200,-1.43894e-12
1776,      228000,       -4200,-1.43894e-12
1777,      248000,       -4200,-1.43894e-12
1778,      268000,       -4200,-1.43894e-12
1779,      288000,       -4200,-1.43894e-12
1780,      308000,       -4200,-1.43894e-12
1781,      328000,       -4200,-1.43894e-12
1782,      348000,       -4200,-1.43894e-12
1783,      368000,       -4200,-1.43894e-12
1784,      388000,       -4200,-1.43894e-12
1785,        9000,       -4200,-1.43894e-12
1786,       29000,       -4200,-1.43894e-12
1787,       49000,       -4200,-1.43894e-12
1788,       69000,       -4200,-1.43894e-12
1789,       89000,       -4200,-1.43894e-12
1790,      109000,       -4200,-1.43894e-12
1791,      129000,       -4200,-1.43894e-12
1792,      149000,       -4200,-1.43894e-12
1793,      169000,       -4200,-1.43894e-12
1794,      189000,       -4200,-1.43894e-12
1795,      209000,       -4200,-1.43894e-12
1796,      229000,       -4200,-1.43894e-12
1797,      249000,       -4200,-1.43894e-12
1798,      269000,       -4200,-1.43894e-12
1799,      289000,       -4200,-1.43894e-12
1800,      309000,       -4200,-1.43894e-12
1801,      329000,       -4200,-1.43894e-12
1802,      349000,       -4200,-1.43894e-12
1803,      369000,       -4200,-1.43894e-12
1804,      389000,       -4200,-1.43894e-12
1805,       10000,       -4200,-1.43894e-12
1806,       30000,       -4200,-1.43894e-12
1807,       50000,       -4200,-1.43894e-12
1808,       70000,       -4200,-1.43894e-12
1809,       90000,       -4200,-1.43894e-12
1810,      110000,       -4200,-1.43894e-12
1811,      130000,       -4200,-1.43894e-12
1812,      150000,       -4200,-1.43894e-12
1813,      170000,       -4200,-1.43894e-12
1814,      190000,       -4200,-1.43894e-12
1815,      210000,       -4200,-1.43894e-12
1816,      230000,       -4200,-1.43894e-12
1817,      250000,       -4200,-1.43894e-12
1818,      270000,       -4200,-1.43894e-12
1819,      290000,       -4200,-1.43894e-12
1820,      310000,       -4200,-1.43894e-12
1821,      330000,       -4200,-1.43894e-12
1822,      350000,       -4200,-1.43894e-12
1823,      370000,       -4200,-1.43894e-12
1824,      390000,       -4200,-1.43894e-12
1825,       11000,       -4200,-1.43894e-12
1826,       31000,       -4200,-1.43894e-12
1827,       51000,       -4200,-1.43894e-12
1828,       71000,       -4200,-1.43894e-12
1829,       91000,       -4200,-1.43894e-12
1830,      111000,       -4200,-1.43894e-12
1831,      131000,       -4200,-1.43894e-12
1832,      151000,       -4200,-1.43894e-12
1833,      171000,       -4200,-1.43894e-12
1834,      191000,       -4200,-1.43894e-12
1835,      211000,       -4200,-1.43894e-12
1836,      231000,       -4200,-1.43894e-12
1837,      251000,       -4200,-1.43894e-12
1838,      271000,       -4200,-1.43894e-12
1839,      291000,       -4200,-1.43894e-12
1840,      311000,       -4200,-1.43894e-12
1841,      331000,       -4200,-1.43894e-12
1842,      351000,       -4200,-1.43894e-12
1843,      371000,       -4200,-1.43894e-12
1844,      391000,       -4200,-1.43894e-12
1845,       12000,       -4200,-1.43894e-12
1846,       32000,       -4200,-1.43894e-12
1847,       52000,       -4200,-1.43894e-12
1848,       72000,       -4200,-1.43894e-12
1849,       92000,       -4200,-1.43894e-12
1850,      112000,       -4200,-1.43894e-12
1851,      132000,       -4200,-1.43894e-12
1852,      152000,       -4200,-1.43894e-12
1853,      172000,       -4200,-1.43894e-12
1854,      192000,       -4200,-1.43894e-12
1855,      212000,       -4200,-1.43894e-12
1856,      232000,       -4200,-1.43894e-12
1857,      252000,       -4200,-1.43894e-12
1858,      272000,       -4200,-1.43894e-12
1859,      292000,       -4200,-1.43894e-12
1860,      312000,       -4200,-1.43894e-12
1861,      332000,       -4200,-1.43894e-12
1862,      352000,       -4200,-1.43894e-12
1863,      372000,       -4200,-1.43894e-12
1864,      392000,       -4200,-1.43894e-12
1865,       13000,       -4200,-1.43894e-12
1866,       33000,       -4200,-1.43894e-12
1867,       53000,       -4200,-1.43894e-12
1868,       73000,       -4200,-1.43894e-12
1869,       93000,       -4200,-1.43894e-12
1870,      113000,       -4200,-1.43894e-12
1871,      133000,       -4200,-1.43894e-12
1872,      153000,       -4200,-1.43894e-12
1873,      173000,       -4200,-1.43894e-12
1874,      193000,       -4200,-1.43894e-12
1875,      213000,       -4200,-1.43894e-12
1876,      233000,       -4200,-1.43894e-12
1877,      253000,       -4200,-1.43894e-12
1878,      273000,       -4200,-1.43894e-12
1879,      293000,       -4200,-1.43894e-12
1880,      313000,       -4200,-1.43894e-12
1881,      333000,       -4200,-1.43894e-12
1882,      353000,       -4200,-1.43894e-12
1883,      373000,       -4200,-1.43894e-12
1884,      393000,       -4200,-1.43894e-12
1885,       14000,       -4200,-1.43894e-12
1886,       34000,       -4200,-1.43894e-12
1887,       54000,       -4200,-1.43894e-12
1888,       74000,       -4200,-1.43894e-12
1889,       94000,       -4200,-1.43894e-12
1890,      114000,       -4200,-1.43894e-12
1891,      134000,       -4200,-1.43894e-12
1892,      154000,       -4200,-1.43894e-12
1893,      174000,       -4200,-1.43894e-12
1894,      194000,       -4200,-1.43894e-12
1895,      214000,       -4200,-1.43894e-12
1896,      234000,       -4200,-1.43894e-12
1897,      254000,       -4200,-1.43894e-12
1898,      274000,       -4200,-1.43894e-12
1899,      294000,       -4200,-1.43894e-12
1900,      314000,       -4200,-1.43894e-12
1901,      334000,       -4200,-1.43894e-12
1902,      354000,       -4200,-1.43894e-12
1903,      374000,       -4200,-1.43894e-12
1904,      394000,       -4200,-1.43894e-12
1905,       15000,       -4200,-1.43894e-12
1906,       35000,       -4200,-1.43894e-12
1907,       55000,       -4200,-1.43894e-12
1908,       75000,       -4200,-1.43894e-12
1909,       95000,       -4200,-1.43894e-12
1910,      115000,       -4200,-1.43894e-12
1911,      135000,       -4200,-1.43894e-12
1912,      155000,       -4200,-1.43894e-12
1913,      175000,       -4200,-1.43894e-12
1914,      195000,       -4200,-1.43894e-12
1915,      215000,       -4200,-1.43894e-12
1916,      235000,       -4200,-1.43894e-12
1917,      255000,       -4200,-1.43894e-12
1918,      275000,       -4200,-1.43894e-12
1919,      295000,       -4200,-1.43894e-12
1920,      315000,       -4200,-1.43894e-12
1921,      335000,       -4200,-1.43894e-12
1922,      355000,       -4200,-1.43894e-12
1923,      375000,       -4200,-1.43894e-12
1924,      395000,       -4200,-1.43894e-12
1925,       16000,       -4200,-1.43894e-12
1926,       36000,       -4200,-1.43894e-12
1927,       56000,       -4200,-1.43894e-12
1928,       76000,       -4200,-1.43894e-12
1929,       96000,       -4200,-1.43894e-12
1930,      116000,       -4200,-1.43894e-12
1931,      136000,       -4200,-1.43894e-12
1932,      156000,       -4200,-1.43894e-12
1933,      176000,       -4200,-1.43894e-12
1934,      196000,       -4200,-1.43894e-12
1935,      216000,       -4200,-1.43894e-12
1936,      236000,       -4200,-1.43894e-12
1937,      256000,       -4200,-1.43894e-12
1938,      276000,       -4200,-1.43894e-12
1939,      296000,       -4200,-1.43894e-12
1940,      316000,       -4200,-1.43894e-12
1941,      336000,       -4200,-1.43894e-12
1942,      356000,       -4200,-1.43894e-12
1943,      376000,       -4200,-1.43894e-12
1944,      396000,       -4200,-1.43894e-12
1945,       17000,       -4200,-1.43894e-12
1946,       37000,       -4200,-1.43894e-12
1947,       57000,       -4200,-1.43894e-12
1948,       77000,       -4200,-1.43894e-12
1949,       97000,       -4200,-1.43894e-12
1950,      117000,       -4200,-1.43894e-12
1951,      137000,       -4200,-1.43894e-12
1952,      157000,       -4200,-1.43894e-12
1953,      177000,       -4200,-1.43894e-12
1954,      197000,       -4200,-1.43894e-12
1955,      217000,       -4200,-1.43894e-12
1956,      237000,       -4200,-1.43894e-12
1957,      257000,       -4200,-1.43894e-12
1958,      277000,       -4200,-1.43894e-12
1959,      297000,       -4200,-1.43894e-12
1960,      317000,       -4200,-1.43894e-12
1961,      337000,       -4200,-1.43894e-12
1962,      357000,       -4200,-1.43894e-12
1963,      377000,       -4200,-1.43894e-12
1964,      397000,       -4200,-1.43894e-12
1965,       18000,       -4200,-1.43894e-12
1966,       38000,       -4200,-1.43894e-12
1967,       58000,       -4200,-1.43894e-12
1968,       78000,       -4200,-1.43894e-12
1969,       98000,       -4200,-1.43894e-12
1970,      118000,       -4200,-1.43894e-12
1971,      138000,       -4200,-1.43894e-12
1972,      158000,       -4200,-1.43894e-12
1973,      178000,       -4200,-1.43894e-12
1974,      198000,       -4200,-1.43894e-12
1975,      218000,       -4200,-1.43894e-12
1976,      238000,       -4200,-1.43894e-12
1977,      258000,       -4200,-1.43894e-12
1978,      278000,       -4200,-1.43894e-12
1979,      298000,       -4200,-1.43894e-12
1980,      318000,       -4200,-1.43894e-12
1981,      338000,       -4200,-1.43894e-12
1982,      358000,       -4200,-1.43894e-12
1983,      378000,       -4200,-1.43894e-12
1984,      398000,       -4200,-1.43894e-12
1985,       19000,       -4200,-1.43894e-12
1986,       39000,       -4200,-1.43894e-12
1987,       59000,       -4200,-1.43894e-12
1988,       79000,       -4200,-1.43894e-12
1989,       99000,       -4200,-1.43894e-12
1990,      119000,       -4200,-1.43894e-12
1991,      139000,       -4200,-1.43894e-12
1992,      159000,       -4200,-1.43894e-12
1993,      179000,       -4200,-1.43894e-12
1994,      199000,       -4200,-1.43894e-12
1995,      219000,       -4200,-1.43894e-12
1996,      239000,       -4200,-1.43894e-12
1997,      259000,       -4200,-1.43894e-12
1998,      279000,       -4200,-1.43894e-12
1999,      299000,       -4200,-1.43894e-12
2000,      319000,       -4200,-1.43894e-12
2001,      339000,       -4200,-1.43894e-12
2002,      359000,       -4200,-1.43894e-12
2003,      379000,       -4200,-1.43894e-12
2004,      399000,       -4200,-1.43894e-12
2005,      400000,       -4200,-1.43894e-12
2006,           0, -3.3975e-13,         700
2007,       20000, -3.3975e-13,         700
2008,       40000, -3.3975e-13,         700
2009,       60000, -3.3975e-13,         700
2010,       80000, -3.3975e-13,         700
2011,      100000, -3.3975e-13,         700
2012,      120000, -3.3975e-13,         700
2013,      140000, -3.3975e-13,         700
2014,      160000, -3.3975e-13,         700
2015,      180000, -3.3975e-13,         700
2016,      200000, -3.3975e-13,         700
2017,      220000, -3.3975e-13,         700
2018,      240000, -3.3975e-13,         700
2019,      260000, -3.3975e-13,         700
2020,      280000, -3.3975e-13,         700
2021,      300000, -3.3975e-13,         700
2022,      320000, -3.3975e-13,         700
2023,      340000, -3.3975e-13,         700
2024,      360000, -3.3975e-13,         700
2025,      380000, -3.3975e-13,         700
2026,        1000, -3.3975e-13,         700
2027,       21000, -3.3975e-13,         700
2028,       41000, -3.3975e-13,         700
2029,       61000, -3.3975e-13,         700
2030,       81000, -3.3975e-13,         700
2031,      101000, -3.3975e-13,         700
2032,      121000, -3.3975e-13,         700
2033,      141000, -3.3975e-13,         700
2034,      161000, -3.3975e-13,         700
2035,      181000, -3.3975e-13,         700
2036,      201000, -3.3975e-13,         700
2037,      221000, -3.3975e-13,         700
2038,      241000, -3.3975e-13,         700
2039,      261000, -3.3975e-13,         700
2040,      281000, -3.3975e-13,         700
2041,      301000, -3.3975e-13,         700
2042,      321000, -3.3975e-13,         700
2043,      341000, -3.3975e-13,         700
2044,      361000, -3.3975e-13,         700
2045,      381000, -3.3975e-13,         700
2046,        2000, -3.3975e-13,         700
2047,       22000, -3.3975e-13,         700
2048,       42000, -3.3975e-13,         700
2049,       62000, -3.3975e-13,         700
2050,       82000, -3.3975e-13,         700
2051,      102000, -3.3975e-13,         700
2052,      122000, -3.3975e-13,         700
2053,      142000, -3.3975e-13,         700
2054,      162000, -3.3975e-13,         700
2055,      182000, -3.3975e-13,         700
2056,      202000, -3.3975e-13,         700
2057,      222000, -3.3975e-13,         700
2058,      242000, -3.3975e-13,         700
2059,      262000, -3.3975e-13,         700
2060,      282000, -3.3975e-13,         700
2061,      302000, -3.3975e-13,         700
2062,      322000, -3.3975e-13,         700
2063,      342000, -3.3975e-13,         700
2064,      362000, -3.3975e-13,         700
2065,      382000, -3.3975e-13,         700
2066,        3000, -3.3975e-13,         700
2067,       23000, -3.3975e-13,         700
2068,       43000, -3.3975e-13,         700
2069,       63000, -3.3975e-13,         700
2070,       83000, -3.3975e-13,         700
2071,      103000, -3.3975e-13,         700
2072,      123000, -3.3975e-13,         700
2073,      143000, -3.3975e-13,         700
2074,      163000, -3.3975e-13,         700
2075,      183000, -3.3975e-13,         700
2076,      203000, -3.3975e-13,         700
2077,      223000, -3.3975e-13,         700
2078,      243000, -3.3975e-13,         700
2079,      263000, -3.3975e-13,         700
2080,      283000, -3.3975e-13,         700
2081,      303000, -3.3975e-13,         700
2082,      323000, -3.3975e-13,         700
2083,      343000, -3.3975e-13,         700
2084,      363000, -3.3975e-13,         700
2085,      383000, -3.3975e-13,         700
2086,        4000, -3.3975e-13,         700
2087,       24000, -3.3975e-13,         700
2088,       44000, -3.3975e-13,         700
2089,       64000, -3.3975e-13,         700
2090,       84000, -3.3975e-13,         700
2091,      104000, -3.3975e-13,         700
2092,      124000, -3.3975e-13,         700
2093,      144000, -3.3975e-13,         700
2094,      164000, -3.3975e-13,         700
2095,      184000, -3.3975e-13,         700
2096,      204000, -3.3975e-13,         700
2097,      224000, -3.3975e-13,         700
2098,      244000, -3.3975e-13,         700
2099,      264000, -3.3975e-13,         700
2100,      284000, -3.3975e-13,         700
2101,      304000, -3.3975e-13,         700
2102,      324000, -3.3975e-13,         700
2103,      344000, -3.3975e-13,         700
2104,      364000, -3.3975e-13,         700
2105,      384000, -3.3975e-13,         700
2106,        5000, -3.3975e-13,         700
2107,       25000, -3.3975e-13,         700
2108,       45000, -3.3975e-13,         700
2109,       65000, -3.3975e-13,         700
2110,       85000, -3.3975e-13,         700
2111,      105000, -3.3975e-13,         700
2112,      125000, -3.3975e-13,         700
2113,      145000, -3.3975e-13,         700
2114,      165000, -3.3975e-13,         700
2115,      185000, -3.3975e-13,         700
2116,      205000, -3.3975e-13,         700
2117,      225000, -3.3975e-13,         700
2118,      245000, -3.3975e-13,         700
2119,      265000, -3.3975e-13,         700
2120,      285000, -3.3975e-13,         700
2121,      305000, -3.3975e-13,         700
2122,      325000, -3.3975e-13,         700
2123,      345000, -3.3975e-13,         700
2124,      365000, -3.3975e-13,         700
2125,      385000, -3.3975e-13,         700
2126,        6000, -3.3975e-13,         700
2127,       26000, -3.3975e-13,         700
2128,       46000, -3.3975e-13,         700
2129,       66000, -3.3975e-13,         700
2130,       86000, -3.3975e-13,         700
2131,      106000, -3.3975e-13,         700
2132,      126000, -3.3975e-13,         700
2133,      146000, -3.3975e-13,         700
2134,      166000, -3.3975e-13,         700
2135,      186000, -3.3975e-13,         700
2136,      206000, -3.3975e-13,         700
2137,      226000, -3.3975e-13,         700
2138,      246000, -3.3975e-13,         700
2139,      266000, -3.3975e-13,         700
2140,      286000, -3.3975e-13,         700
2141,      306000, -3.3975e-13,         700
2142,      326000, -3.3975e-13,         700
2143,      346000, -3.3975e-13,         700
2144,      366000, -3.3975e-13,         700
2145,      386000, -3.3975e-13,         700
2146,        7000, -3.3975e-13,         700
2147,       27000, -3.3975e-13,         700
2148,       47000, -3.3975e-13,         700
2149,       67000, -3.3975e-13,         700
2150,       87000, -3.3975e-13,         700
2151,      107000, -3.3975e-13,         700
2152,      127000, -3.3975e-13,         700
2153,      147000, -3.3975e-13,         700
2154,      167000, -3.3975e-13,         700
2155,      187000, -3.3975e-13,         700
2156,      207000, -3.3975e-13,         700
2157,      227000, -3.3975e-13,         700
2158,      247000, -3.3975e-13,         700
2159,      267000, -3.3975e-13,         700
2160,      287000, -3.3975e-13,         700
2161,      307000, -3.3975e-13,         700
2162,      327000, -3.3975e-13,         700
2163,      347000, -3.3975e-13,         700
2164,      367000, -3.3975e-13,         700
2165,      387000, -3.3975e-13,         700
2166,        8000, -3.3975e-13,         700
2167,       28000, -3.3975e-13,         700
2168,       48000, -3.3975e-13,         700
2169,       68000, -3.3975e-13,         700
2170,       88000, -3.3975e-13,         700
2171,      108000, -3.3975e-13,         700
2172,      128000, -3.3975e-13,         700
2173,      148000, -3.3975e-13,         700
2174,      168000, -3.3975e-13,         700
2175,      188000, -3.3975e-13,         700
2176,      208000, -3.3975e-13,         700
2177,      228000, -3.3975e-13,         700
2178,      248000, -3.3975e-13,         700
2179,      268000, -3.3975e-13,         700
2180,      288000, -3.3975e-13,         700
2181,      308000, -3.3975e-13,         700
2182,      328000, -3.3975e-13,         700
2183,      348000, -3.3975e-13,         700
2184,      368000, -3.3975e-13,         700
2185,      388000, -3.3975e-13,         700
2186,        9000, -3.3975e-13,         700
2187,       29000, -3.3975e-13,         700
2188,       49000, -3.3975e-13,         700
2189,       69000, -3.3975e-13,         700
2190,       89000, -3.3975e-13,         700
2191,      109000, -3.3975e-13,         700
2192,      129000, -3.3975e-13,         700
2193,      149000, -3.3975e-13,         700
2194,      169000, -3.3975e-13,         700
2195,      189000, -3.3975e-13,         700
2196,      209000, -3.3975e-13,         700
2197,      229000, -3.3975e-13,         700
2198,      249000, -3.3975e-13,         700
2199,      269000, -3.3975e-13,         700
2200,      289000, -3.3975e-13,         700
2201,      309000, -3.3975e-13,         700
2202,      329000, -3.3975e-13,         700
2203,      349000, -3.3975e-13,         700
2204,      369000, -3.3975e-13,         700
2205,      389000, -3.3975e-13,         700
2206,       10000, -3.3975e-13,         700
2207,       30000, -3.3975e-13,         700
2208,       50000, -3.3975e-13,         700
2209,       70000, -3.3975e-13,         700
2210,       90000, -3.3975e-13,         700
2211,      110000, -3.3975e-13,         700
2212,      130000, -3.3975e-13,         700
2213,      150000, -3.3975e-13,         700
2214,      170000, -3.3975e-13,         700
2215,      190000, -3.3975e-13,         700
2216,      210000, -3.3975e-13,         700
2217,      230000, -3.3975e-13,         700
2218,      250000, -3.3975e-13,         700
2219,      270000, -3.3975e-13,         700
2220,      290000, -3.3975e-13,         700
2221,      310000, -3.3975e-13,         700
2222,      330000, -3.3975e-13,         700
2223,      350000, -3.3975e-13,         700
2224,      370000, -3.3975e-13,         700
2225,      390000, -3.3975e-13,         700
2226,       11000, -3.3975e-13,         700
2227,       31000, -3.3975e-13,         700
2228,       51000, -3.3975e-13,         700
2229,       71000, -3.3975e-13,         700
2230,       91000, -3.3975e-13,         700
2231,      111000, -3.3975e-13,         700
2232,      131000, -3.3975e-13,         700
2233,      151000, -3.3975e-13,         700
2234,      171000, -3.3975e-13,         700
2235,      191000, -3.3975e-13,         700
2236,      211000, -3.3975e-13,         700
2237,      231000, -3.3975e-13,         700
2238,      251000, -3.3975e-13,         700
2239,      271000, -3.3975e-13,         700
2240,      291000, -3.3975e-13,         700
2241,      311000, -3.3975e-13,         700
2242,      331000, -3.3975e-13,         700
2243,      351000, -3.3975e-13,         700
2244,      371000, -3.3975e-13,         700
2245,      391000, -3.3975e-13,         700
2246,       12000, -3.3975e-13,         700
2247,       32000, -3.3975e-13,         700
2248,       52000, -3.3975e-13,         700
2249,       72000, -3.3975e-13,         700
2250,       92000, -3.3975e-13,         700
2251,      112000, -3.3975e-13,         700
2252,      132000, -3.3975e-13,         700
2253,      152000, -3.3975e-13,         700
2254,      172000, -3.3975e-13,         700
2255,      192000, -3.3975e-13,         700
2256,      212000, -3.3975e-13,         700
2257,      232000, -3.3975e-13,         700
2258,      252000, -3.3975e-13,         700
2259,      272000, -3.3975e-13,         700
2260,      292000, -3.3975e-13,         700
2261,      312000, -3.3975e-13,         700
2262,      332000, -3.3975e-13,         700
2263,      352000, -3.3975e-13,         700
2264,      372000, -3.3975e-13,         700
2265,      392000, -3.3975e-13,         700
2266,       13000, -3.3975e-13,         700
2267,       33000, -3.3975e-13,         700
2268,       53000, -3.3975e-13,         700
2269,       73000, -3.3975e-13,         700
2270,       93000, -3.3975e-13,         700
2271,      113000, -3.3975e-13,         700
2272,      133000, -3.3975e-13,         700
2273,      153000, -3.3975e-13,         700
2274,      173000, -3.3975e-13,         700
2275,      193000, -3.3975e-13,         700
2276,      213000, -3.3975e-13,         700
2277,      233000, -3.3975e-13,         700
2278,      253000, -3.3975e-13,         700
2279,      273000, -3.3975e-13,         700
2280,      293000, -3.3975e-13,         700
2281,      313000, -3.3975e-13,         700
2282,      333000, -3.3975e-13,         700
2283,      353000, -3.3975e-13,         700
2284,      373000, -3.3975e-13,         700
2285,      393000, -3.3975e-13,         700
2286,       14000, -3.3975e-13,         700
2287,       34000, -3.3975e-13,         700
2288,       54000, -3.3975e-13,         700
2289,       74000, -3.3975e-13,         700
2290,       94000, -3.3975e-13,         700
2291,      114000, -3.3975e-13,         700
2292,      134000, -3.3975e-13,         700
2293,      154000, -3.3975e-13,         700
2294,      174000, -3.3975e-13,         700
2295,      194000, -3.3975e-13,         700
2296,      214000, -3.3975e-13,         700
2297,      234000, -3.3975e-13,         700
2298,      254000, -3.3975e-13,         700
2299,      274000, -3.3975e-13,         700
2300,      294000, -3.3975e-13,         700
2301,      314000, -3.3975e-13,         700
2302,      334000, -3.3975e-13,         700
2303,      354000, -3.3975e-13,         700
2304,      374000, -3.3975e-13,         700
2305,      394000, -3.3975e-13,         700
2306,       15000, -3.3975e-13,         700
2307,       35000, -3.3975e-13,         700
2308,       55000, -3.3975e-13,         700
2309,       75000, -3.3975e-13,         700
2310,       95000, -3.3975e-13,         700
2311,      115000, -3.3975e-13,         700
2312,      135000, -3.3975e-13,         700
2313,      155000, -3.3975e-13,         700
2314,      175000, -3.3975e-13,         700
2315,      195000, -3.3975e-13,         700
2316,      215000, -3.3975e-13,         700
2317,      235000, -3.3975e-13,         700
2318,      255000, -3.3975e-13,         700
2319,      275000, -3.3975e-13,         700
2320,      295000, -3.3975e-13,         700
2321,      315000, -3.3975e-13,         700
2322,      335000, -3.3975e-13,         700
2323,      355000, -3.3975e-13,         700
2324,      375000, -3.3975e-13,         700
2325,      395000, -3.3975e-13,         700
2326,       16000, -3.3975e-13,         700
2327,       36000, -3.3975e-13,         700
2328,       56000, -3.3975e-13,         700
2329,       76000, -3.3975e-13,         700
2330,       96000, -3.3975e-13,         700
2331,      116000, -3.3975e-13,         700
2332,      136000, -3.3975e-13,         700
2333,      156000, -3.3975e-13,         700
2334,      176000, -3.3975e-13,         700
2335,      196000, -3.3975e-13,         700
2336,      216000, -3.3975e-13,         700
2337,      236000, -3.3975e-13,         700
2338,      256000, -3.3975e-13,         700
2339,      276000, -3.3975e-13,         700
2340,      296000, -3.3975e-13,         700
2341,      316000, -3.3975e-13,         700
2342,      336000, -3.3975e-13,         700
2343,      356000, -3.3975e-13,         700
2344,      376000, -3.3975e-13,         700
2345,      396000, -3.3975e-13,         700
2346,       17000, -3.3975e-13,         700
2347,       37000, -3.3975e-13,         700
2348,       57000, -3.3975e-13,         700
2349,       77000, -3.3975e-13,         700
2350,       97000, -3.3975e-13,         700
2351,      117000, -3.3975e-13,         700
2352,      137000, -3.3975e-13,         700
2353,      157000, -3.3975e-13,         700
2354,      177000, -3.3975e-13,         700
2355,      197000, -3.3975e-13,         700
2356,      217000, -3.3975e-13,         700
2357,      237000, -3.3975e-13,         700
2358,      257000, -3.3975e-13,         700
2359,      277000, -3.3975e-13,         700
2360,      297000, -3.3975e-13,         700
2361,      317000, -3.3975e-13,         700
2362,      337000, -3.3975e-13,         700
2363,      357000, -3.3975e-13,         700
2364,      377000, -3.3975e-13,         700
2365,      397000, -3.3975e-13,         700
2366,       18000, -3.3975e-13,         700
2367,       38000, -3.3975e-13,         700
2368,       58000, -3.3975e-13,         700
2369,       78000, -3.3975e-13,         700
2370,       98000, -3.3975e-13,         700
2371,      118000, -3.3975e-13,         700
2372,      138000, -3.3975e-13,         700
2373,      158000, -3.3975e-13,         700
2374,      178000, -3.3975e-13,         700
2375,      198000, -3.3975e-13,         700
2376,      218000, -3.3975e-13,         700
2377,      238000, -3.3975e-13,         700
2378,      258000, -3.3975e-13,         700
2379,      278000, -3.3975e-13,         700
2380,      298000, -3.3975e-13,         700
2381,      318000, -3.3975e-13,         700
2382,      338000, -3.3975e-13,         700
2383,      358000, -3.3975e-13,         700
2384,      378000, -3.3975e-13,         700
2385,      398000, -3.3975e-13,         700
2386,       19000, -3.3975e-13,         700
2387,       39000, -3.3975e-13,         700
2388,       59000, -3.3975e-13,         700
2389,       79000, -3.3975e-13,         700
2390,       99000, -3.3975e-13,         700
2391,      119000, -3.3975e-13,         700
2392,      139000, -3.3975e-13,         700
2393,      159000, -3.3975e-13,         700
2394,      179000, -3.3975e-13,         700
2395,      199000, -3.3975e-13,         700
2396,      219000, -3.3975e-13,         700
2397,      239000, -3.3975e-13,         700
2398,      259000, -3.3975e-13,         700
2399,      279000, -3.3975e-13,         700
2400,      299000, -3.3975e-13,         700
2401,      319000, -3.3975e-13,         700
2402,      339000, -3.3975e-13,         700
2403,      359000, -3.3975e-13,         700
2404,      379000, -3.3975e-13,         700
2405,      399000, -3.3975e-13,         700
2406,      400000, -3.3975e-13,         700
2407,           0,        2100,         700
2408,       20000,        2100,         700
2409,       40000,        2100,         700
2410,       60000,        2100,         700
2411,       80000,        2100,         700
2412,      100000,        2100,         700
2413,      120000,        2100,         700
2414,      140000,        2100,         700
2415,      160000,        2100,         700
2416,      180000,        2100,         700
2417,      200000,        2100,         700
2418,      220000,        2100,         700
2419,      240000,        2100,         700
2420,      260000,        2100,         700
2421,      280000,        2100,         700
2422,      300000,        2100,         700
2423,      320000,        2100,         700
2424,      340000,        2100,         700
2425,      360000,        2100,         700
2426,      380000,        2100,         700
2427,        1000,        2100,         700
2428,       21000,        2100,         700
2429,       41000,        2100,         700
2430,       61000,        2100,         700
2431,       81000,        2100,         700
2432,      101000,        2100,         700
2433,      121000,        2100,         700
2434,      141000,        2100,         700
2435,      161000,        2100,         700
2436,      181000,        2100,         700
2437,      201000,        2100,         700
2438,      221000,        2100,         700
2439,      241000,        2100,         700
2440,      261000,        2100,         700
2441,      281000,        2100,         700
2442,      301000,        2100,         700
2443,      321000,        2100,         700
2444,      341000,        2100,         700
2445,      361000,        2100,         700
2446,      381000,        2100,         700
2447,        2000,        2100,         700
2448,       22000,        2100,         700
2449,       42000,        2100,         700
2450,       62000,        2100,         700
2451,       82000,        2100,         700
2452,      102000,        2100,         700
2453,      122000,        2100,         700
2454,      142000,        2100,         700
2455,      162000,        2100,         700
2456,      182000,        2100,         700
2457,      202000,        2100,         700
2458,      222000,        2100,         700
2459,      242000,        2100,         700
2460,      262000,        2100,         700
2461,      282000,        2100,         700
2462,      302000,        2100,         700
2463,      322000,        2100,         700
2464,      342000,        2100,         700
2465,      362000,        2100,         700
2466,      382000,        2100,         700
2467,        3000,        2100,         700
2468,       23000,        2100,         700
2469,       43000,        2100,         700
2470,       63000,        2100,         700
2471,       83000,        2100,         700
2472,      103000,        2100,         700
2473,      123000,        2100,         700
2474,      143000,        2100,         700
2475,      163000,        2100,         700
2476,      183000,        2100,         700
2477,      203000,        2100,         700
2478,      223000,        2100,         700
2479,      243000,        2100,         700
2480,      263000,        2100,         700
2481,      283000,        2100,         700
2482,      303000,        2100,         700
2483,      323000,        2100,         700
2484,      343000,        2100,         700
2485,      363000,        2100,         700
2486,      383000,        2100,         700
2487,        4000,        2100,         700
2488,       24000,        2100,         700
2489,       44000,        2100,         700
2490,       64000,        2100,         700
2491,       84000,        2100,         700
2492,      104000,        2100,         700
2493,      124000,        2100,         700
2494,      144000,        2100,         700
2495,      164000,        2100,         700
2496,      184000,        2100,         700
2497,      204000,        2100,         700
2498,      224000,        2100,         700
2499,      244000,        2100,         700
2500,      264000,        2100,         700
2501,      284000,        2100,         700
2502,      304000,        2100,         700
2503,      324000,        2100,         700
2504,      344000,        2100,         700
2505,      364000,        2100,         700
2506,      384000,        2100,         700
2507,        5000,        2100,         700
2508,       25000,        2100,         700
2509,       45000,        2100,         700
2510,       65000,        2100,         700
2511,       85000,        2100,         700
2512,      105000,        2100,         700
2513,      125000,        2100,         700
2514,      145000,        2100,         700
2515,      165000,        2100,         700
2516,      185000,        2100,         700
2517,      205000,        2100,         700
2518,      225000,        2100,         700
2519,      245000,        2100,         700
2520,      265000,        2100,         700
2521,      285000,        2100,         700
2522,      305000,        2100,         700
2523,      325000,        2100,         700
2524,      345000,        2100,         700
2525,      365000,        2100,         700
2526,      385000,        2100,         700
2527,        6000,        2100,         700
2528,       26000,        2100,         700
2529,       46000,        2100,         700
2530,       66000,        2100,         700
2531,       86000,        2100,         700
2532,      106000,        2100,         700
2533,      126000,        2100,         700
2534,      146000,        2100,         700
2535,      166000,        2100,         700
2536,      186000,        2100,         700
2537,      206000,        2100,         700
2538,      226000,        2100,         700
2539,      246000,        2100,         700
2540,      266000,        2100,         700
2541,      286000,        2100,         700
2542,      306000,        2100,         700
2543,      326000,        2100,         700
2544,      346000,        2100,         700
2545,      366000,        2100,         700
2546,      386000,        2100,         700
2547,        7000,        2100,         700
2548,       27000,        2100,         700
2549,       47000,        2100,         700
2550,       67000,        2100,         700
2551,       87000,        2100,         700
2552,      107000,        2100,         700
2553,      127000,        2100,         700
2554,      147000,        2100,         700
2555,      167000,        2100,         700
2556,      187000,        2100,         700
2557,      207000,        2100,         700
2558,      227000,        2100,         700
2559,      247000,        2100,         700
2560,      267000,        2100,         700
2561,      287000,        2100,         700
2562,      307000,        2100,         700
2563,      327000,        2100,         700
2564,      347000,        2100,         700
2565,      367000,        2100,         700
2566,      387000,        2100,         700
2567,        8000,        2100,         700
2568,       28000,        2100,         700
2569,       48000,        2100,         700
2570,       68000,        2100,         700
2571,       88000,        2100,         700
2572,      108000,        2100,         700
2573,      128000,        2100,         700
2574,      148000,        2100,         700
2575,      168000,        2100,         700
2576,      188000,        2100,         700
2577,      208000,        2100,         700
2578,      228000,        2100,         700
2579,      248000,        2100,         700
2580,      268000,        2100,         700
2581,      288000,        2100,         700
2582,      308000,        2100,         700
2583,      328000,        2100,         700
2584,      348000,        2100,         700
2585,      368000,        2100,         700
2586,      388000,        2100,         700
2587,        9000,        2100,         700
2588,       29000,        2100,         700
2589,       49000,        2100,         700
2590,       69000,        2100,         700
2591,       89000,        2100,         700
2592,      109000,        2100,         700
2593,      129000,        2100,         700
2594,      149000,        2100,         700
2595,      169000,        2100,         700
2596,      189000,        2100,         700
2597,      209000,        2100,         700
2598,      229000,        2100,         700
2599,      249000,        2100,         700
2600,      269000,        2100,         700
2601,      289000,        2100,         700
2602,      309000,        2100,         700
2603,      329000,        2100,         700
2604,      349000,        2100,         700
2605,      369000,        2100,         700
2606,      389000,        2100,         700
2607,       10000,        2100,         700
2608,       30000,        2100,         700
2609,       50000,        2100,         700
2610,       70000,        2100,         700
2611,       90000,        2100,         700
2612,      110000,        2100,         700
2613,      130000,        2100,         700
2614,      150000,        2100,         700
2615,      170000,        2100,         700
2616,      190000,        2100,         700
2617,      210000,        2100,         700
2618,      230000,        2100,         700
2619,      250000,        2100,         700
2620,      270000,        2100,         700
2621,      290000,        2100,         700
2622,      310000,        2100,         700
2623,      330000,        2100,         700
2624,      350000,        2100,         700
2625,      370000,        2100,         700
2626,      390000,        2100,         700
2627,       11000,        2100,         700
2628,       31000,        2100,         700
2629,       51000,        2100,         700
2630,       71000,        2100,         700
2631,       91000,        2100,         700
2632,      111000,        2100,         700
2633,      131000,        2100,         700
2634,      151000,        2100,         700
2635,      171000,        2100,         700
2636,      191000,        2100,         700
2637,      211000,        2100,         700
2638,      231000,        2100,         700
2639,      251000,        2100,         700
2640,      271000,        2100,         700
2641,      291000,        2100,         700
2642,      311000,        2100,         700
2643,      331000,        2100,         700
2644,      351000,        2100,         700
2645,      371000,        2100,         700
2646,      391000,        2100,         700
2647,       12000,        2100,         700
2648,       32000,        2100,         700
2649,       52000,        2100,         700
2650,       72000,        2100,         700
2651,       92000,        2100,         700
2652,      112000,        2100,         700
2653,      132000,        2100,         700
2654,      152000,        2100,         700
2655,      172000,        2100,         700
2656,      192000,        2100,         700
2657,      212000,        2100,         700
2658,      232000,        2100,         700
2659,      252000,        2100,         700
2660,      272000,        2100,         700
2661,      292000,        2100,         700
2662,      312000,        2100,         700
2663,      332000,        2100,         700
2664,      352000,        2100,         700
2665,      372000,        2100,         700
2666,      392000,        2100,         700
2667,       13000,        2100,         700
2668,       33000,        2100,         700
2669,       53000,        2100,         700
2670,       73000,        2100,         700
2671,       93000,        2100,         700
2672,      113000,        2100,         700
2673,      133000,        2100,         700
2674,      153000,        2100,         700
2675,      173000,        2100,         700
2676,      193000,        2100,         700
2677,      213000,        2100,         700
2678,      233000,        2100,         700
2679,      253000,        2100,         700
2680,      273000,        2100,         700
2681,      293000,        2100,         700
2682,      313000,        2100,         700
2683,      333000,        2100,         700
2684,      353000,        2100,         700
2685,      373000,        2100,         700
2686,      393000,        2100,         700
2687,       14000,        2100,         700
2688,       34000,        2100,         700
2689,       54000,        2100,         700
2690,       74000,        2100,         700
2691,       94000,        2100,         700
2692,      114000,        2100,         700
2693,      134000,        2100,         700
2694,      154000,        2100,         700
2695,      174000,        2100,         700
2696,      194000,        2100,         700
2697,      214000,        2100,         700
2698,      234000,        2100,         700
2699,      254000,        2100,         700
2700,      274000,        2100,         700
2701,      294000,        2100,         700
2702,      314000,        2100,         700
2703,      334000,        2100,         700
2704,      354000,        2100,         700
2705,      374000,        2100,         700
2706,      394000,        2100,         700
2707,       15000,        2100,         700
2708,       35000,        2100,         700
2709,       55000,        2100,         700
2710,       75000,        2100,         700
2711,       95000,        2100,         700
2712,      115000,        2100,         700
2713,      135000,        2100,         700
2714,      155000,        2100,         700
2715,      175000,        2100,         700
2716,      195000,        2100,         700
2717,      215000,        2100,         700
2718,      235000,        2100,         700
2719,      255000,        2100,         700
2720,      275000,        2100,         700
2721,      295000,        2100,         700
2722,      315000,        2100,         700
2723,      335000,        2100,         700
2724,      355000,        2100,         700
2725,      375000,        2100,         700
2726,      395000,        2100,         700
2727,       16000,        2100,         700
2728,       36000,        2100,         700
2729,       56000,        2100,         700
2730,       76000,        2100,         700
2731,       96000,        2100,         700
2732,      116000,        2100,         700
2733,      136000,        2100,         700
2734,      156000,        2100,         700
2735,      176000,        2100,         700
2736,      196000,        2100,         700
2737,      216000,        2100,         700
2738,      236000,        2100,         700
2739,      256000,        2100,         700
2740,      276000,        2100,         700
2741,      296000,        2100,         700
2742,      316000,        2100,         700
2743,      336000,        2100,         700
2744,      356000,        2100,         700
2745,      376000,        2100,         700
2746,      396000,        2100,         700
2747,       17000,        2100,         700
2748,       37000,        2100,         700
2749,       57000,        2100,         700
2750,       77000,        2100,         700
2751,       97000,        2100,         700
2752,      117000,        2100,         700
2753,      137000,        2100,         700
2754,      157000,        2100,         700
2755,      177000,        2100,         700
2756,      197000,        2100,         700
2757,      217000,        2100,         700
2758,      237000,        2100,         700
2759,      257000,        2100,         700
2760,      277000,        2100,         700
2761,      297000,        2100,         700
2762,      317000,        2100,         700
2763,      337000,        2100,         700
2764,      357000,        2100,         700
2765,      377000,        2100,         700
2766,      397000,        2100,         700
2767,       18000,        2100,         700
2768,       38000,        2100,         700
2769,       58000,        2100,         700
2770,       78000,        2100,         700
2771,       98000,        2100,         700
2772,      118000,        2100,         700
2773,      138000,        2100,         700
2774,      158000,        2100,         700
2775,      178000,        2100,         700
2776,      198000,        2100,         700
2777,      218000,        2100,         700
2778,      238000,        2100,         700
2779,      258000,        2100,         700
2780,      278000,        2100,         700
2781,      298000,        2100,         700
2782,      318000,        2100,         700
2783,      338000,        2100,         700
2784,      358000,        2100,         700
2785,      378000,        2100,         700
2786,      398000,        2100,         700
2787,       19000,        2100,         700
2788,       39000,        2100,         700
2789,       59000,        2100,         700
2790,       79000,        2100,         700
2791,       99000,        2100,         700
2792,      119000,        2100,         700
2793,      139000,        2100,         700
2794,      159000,        2100,         700
2795,      179000,        2100,         700
2796,      199000,        2100,         700
2797,      219000,        2100,         700
2798,      239000,        2100,         700
2799,      259000,        2100,         700
2800,      279000,        2100,         700
2801,      299000,        2100,         700
2802,      319000,        2100,         700
2803,      339000,        2100,         700
2804,      359000,        2100,         700
2805,      379000,        2100,         700
2806,      399000,        2100,         700
2807,      400000,        2100,         700
2808,           0,        4200,         700
2809,       20000,        4200,         700
2810,       40000,        4200,         700
2811,       60000,        4200,         700
2812,       80000,        4200,         700
2813,      100000,        4200,         700
2814,      120000,        4200,         700
2815,      140000,        4200,         700
2816,      160000,        4200,         700
2817,      180000,        4200,         700
2818,      200000,        4200,         700
2819,      220000,        4200,         700
2820,      240000,        4200,         700
2821,      260000,        4200,         700
2822,      280000,        4200,         700
2823,      300000,        4200,         700
2824,      320000,        4200,         700
2825,      340000,        4200,         700
2826,      360000,        4200,         700
2827,      380000,        4200,         700
2828,        1000,        4200,         700
2829,       21000,        4200,         700
2830,       41000,        4200,         700
2831,       61000,        4200,         700
2832,       81000,        4200,         700
2833,      101000,        4200,         700
2834,      121000,        4200,         700
2835,      141000,        4200,         700
2836,      161000,        4200,         700
2837,      181000,        4200,         700
2838,      201000,        4200,         700
2839,      221000,        4200,         700
2840,      241000,        4200,         700
2841,      261000,        4200,         700
2842,      281000,        4200,         700
2843,      301000,        4200,         700
2844,      321000,        4200,         700
2845,      341000,        4200,         700
2846,      361000,        4200,         700
2847,      381000,        4200,         700
2848,        2000,        4200,         700
2849,       22000,        4200,         700
2850,       42000,        4200,         700
2851,       62000,        4200,         700
2852,       82000,        4200,         700
2853,      102000,        4200,         700
2854,      122000,        4200,         700
2855,      142000,        4200,         700
2856,      162000,        4200,         700
2857,      182000,        4200,         700
2858,      202000,        4200,         700
2859,      222000,        4200,         700
2860,      242000,        4200,         700
2861,      262000,        4200,         700
2862,      282000,        4200,         700
2863,      302000,        4200,         700
2864,      322000,        4200,         700
2865,      342000,        4200,         700
2866,      362000,        4200,         700
2867,      382000,        4200,         700
2868,        3000,        4200,         700
2869,       23000,        4200,         700
2870,       43000,        4200,         700
2871,       63000,        4200,         700
2872,       83000,        4200,         700
2873,      103000,        4200,         700
2874,      123000,        4200,         700
2875,      143000,        4200,         700
2876,      163000,        4200,         700
2877,      183000,        4200,         700
2878,      203000,        4200,         700
2879,      223000,        4200,         700
2880,      243000,        4200,         700
2881,      263000,        4200,         700
2882,      283000,        4200,         700
2883,      303000,        4200,         700
2884,      323000,        4200,         700
2885,      343000,        4200,         700
2886,      363000,        4200,         700
2887,      383000,        4200,         700
2888,        4000,        4200,         700
2889,       24000,        4200,         700
2890,       44000,        4200,         700
2891,       64000,        4200,         700
2892,       84000,        4200,         700
2893,      104000,        4200,         700
2894,      124000,        4200,         700
2895,      144000,        4200,         700
2896,      164000,        4200,         700
2897,      184000,        4200,         700
2898,      204000,        4200,         700
2899,      224000,        4200,         700
2900,      244000,        4200,         700
2901,      264000,        4200,         700
2902,      284000,        4200,         700
2903,      304000,        4200,         700
2904,      324000,        4200,         700
2905,      344000,        4200,         700
2906,      364000,        4200,         700
2907,      384000,        4200,         700
2908,        5000,        4200,         700
2909,       25000,        4200,         700
2910,       45000,        4200,         700
2911,       65000,        4200,         700
2912,       85000,        4200,         700
2913,      105000,        4200,         700
2914,      125000,        4200,         700
2915,      145000,        4200,         700
2916,      165000,        4200,         700
2917,      185000,        4200,         700
2918,      205000,        4200,         700
2919,      225000,        4200,         700
2920,      245000,        4200,         700
2921,      265000,        4200,         700
2922,      285000,        4200,         700
2923,      305000,        4200,         700
2924,      325000,        4200,         700
2925,      345000,        4200,         700
2926,      365000,        4200,         700
2927,      385000,        4200,         700
2928,        6000,        4200,         700
2929,       26000,        4200,         700
2930,       46000,        4200,         700
2931,       66000,        4200,         700
2932,       86000,        4200,         700
2933,      106000,        4200,         700
2934,      126000,        4200,         700
2935,      146000,        4200,         700
2936,      166000,        4200,         700
2937,      186000,        4200,         700
2938,      206000,        4200,         700
2939,      226000,        4200,         700
2940,      246000,        4200,         700
2941,      266000,        4200,         700
2942,      286000,        4200,         700
2943,      306000,        4200,         700
2944,      326000,        4200,         700
2945,      346000,        4200,         700
2946,      366000,        4200,         700
2947,      386000,        4200,         700
2948,        7000,        4200,         700
2949,       27000,        4200,         700
2950,       47000,        4200,         700
2951,       67000,        4200,         700
2952,       87000,        4200,         700
2953,      107000,        4200,         700
2954,      127000,        4200,         700
2955,      147000,        4200,         700
2956,      167000,        4200,         700
2957,      187000,        4200,         700
2958,      207000,        4200,         700
2959,      227000,        4200,         700
2960,      247000,        4200,         700
2961,      267000,        4200,         700
2962,      287000,        4200,         700
2963,      307000,        4200,         700
2964,      327000,        4200,         700
2965,      347000,        4200,         700
2966,      367000,        4200,         700
2967,      387000,        4200,         700
2968,        8000,        4200,         700
2969,       28000,        4200,         700
2970,       48000,        4200,         700
2971,       68000,        4200,         700
2972,       88000,        4200,         700
2973,      108000,        4200,         700
2974,      128000,        4200,         700
2975,      148000,        4200,         700
2976,      168000,        4200,         700
2977,      188000,        4200,         700
2978,      208000,        4200,         700
2979,      228000,        4200,         700
2980,      248000,        4200,         700
2981,      268000,        4200,         700
2982,      288000,        4200,         700
2983,      308000,        4200,         700
2984,      328000,        4200,         700
2985,      348000,        4200,         700
2986,      368000,        4200,         700
2987,      388000,        4200,         700
2988,        9000,        4200,         700
2989,       29000,        4200,         700
2990,       49000,        4200,         700
2991,       69000,        4200,         700
2992,       89000,        4200,         700
2993,      109000,        4200,         700
2994,      129000,        4200,         700
2995,      149000,        4200,         700
2996,      169000,        4200,         700
2997,      189000,        4200,         700
2998,      209000,        4200,         700
2999,      229000,        4200,         700
3000,      249000,        4200,         700
3001,      269000,        4200,         700
3002,      289000,        4200,         700
3003,      309000,        4200,         700
3004,      329000,        4200,         700
3005,      349000,        4200,         700
3006,      369000,        4200,         700
3007,      389000,        4200,         700
3008,       10000,        4200,         700
3009,       30000,        4200,         700
3010,       50000,        4200,         700
3011,       70000,        4200,         700
3012,       90000,        4200,         700
3013,      110000,        4200,         700
3014,      130000,        4200,         700
3015,      150000,        4200,         700
3016,      170000,        4200,         700
3017,      190000,        4200,         700
3018,      210000,        4200,         700
3019,      230000,        4200,         700
3020,      250000,        4200,         700
3021,      270000,        4200,         700
3022,      290000,        4200,         700
3023,      310000,        4200,         700
3024,      330000,        4200,         700
3025,      350000,        4200,         700
3026,      370000,        4200,         700
3027,      390000,        4200,         700
3028,       11000,        4200,         700
3029,       31000,        4200,         700
3030,       51000,        4200,         700
3031,       71000,        4200,         700
3032,       91000,        4200,         700
3033,      111000,        4200,         700
3034,      131000,        4200,         700
3035,      151000,        4200,         700
3036,      171000,        4200,         700
3037,      191000,        4200,         700
3038,      211000,        4200,         700
3039,      231000,        4200,         700
3040,      251000,        4200,         700
3041,      271000,        4200,         700
3042,      291000,        4200,         700
3043,      311000,        4200,         700
3044,      331000,        4200,         700
3045,      351000,        4200,         700
3046,      371000,        4200,         700
3047,      391000,        4200,         700
3048,       12000,        4200,         700
3049,       32000,        4200,         700
3050,       52000,        4200,         700
3051,       72000,        4200,         700
3052,       92000,        4200,         700
3053,      112000,        4200,         700
3054,      132000,        4200,         700
3055,      152000,        4200,         700
3056,      172000,        4200,         700
3057,      192000,        4200,         700
3058,      212000,        4200,         700
3059,      232000,        4200,         700
3060,      252000,        4200,         700
3061,      272000,        4200,         700
3062,      292000,        4200,         700
3063,      312000,        4200,         700
3064,      332000,        4200,         700
3065,      352000,        4200,         700
3066,      372000,        4200,         700
3067,      392000,        4200,         700
3068,       13000,        4200,         700
3069,       33000,        4200,         700
3070,       53000,        4200,         700
3071,       73000,        4200,         700
3072,       93000,        4200,         700
3073,      113000,        4200,         700
3074,      133000,        4200,         700
3075,      153000,        4200,         700
3076,      173000,        4200,         700
3077,      193000,        4200,         700
3078,      213000,        4200,         700
3079,      233000,        4200,         700
3080,      253000,        4200,         700
3081,      273000,        4200,         700
3082,      293000,        4200,         700
3083,      313000,        4200,         700
3084,      333000,        4200,         700
3085,      353000,        4200,         700
3086,      373000,        4200,         700
3087,      393000,        4200,         700
3088,       14000,        4200,         700
3089,       34000,        4200,         700
3090,       54000,        4200,         700
3091,       74000,        4200,         700
3092,       94000,        4200,         700
3093,      114000,        4200,         700
3094,      134000,        4200,         700
3095,      154000,        4200,         700
3096,      174000,        4200,         700
3097,      194000,        4200,         700
3098,      214000,        4200,         700
3099,      234000,        4200,         700
3100,      254000,        4200,         700
3101,      274000,        4200,         700
3102,      294000,        4200,         700
3103,      314000,        4200,         700
3104,      334000,        4200,         700
3105,      354000,        4200,         700
3106,      374000,        4200,         700
3107,      394000,        4200,         700
3108,       15000,        4200,         700
3109,       35000,        4200,         700
3110,       55000,        4200,         700
3111,       75000,        4200,         700
3112,       95000,        4200,         700
3113,      115000,        4200,         700
3114,      135000,        4200,         700
3115,      155000,        4200,         700
3116,      175000,        4200,         700
3117,      195000,        4200,         700
3118,      215000,        4200,         700
3119,      235000,        4200,         700
3120,      255000,        4200,         700
3121,      275000,        4200,         700
3122,      295000,        4200,         700
3123,      315000,        4200,         700
3124,      335000,        4200,         700
3125,      355000,        4200,         700
3126,      375000,        4200,         700
3127,      395000,        4200,         700
3128,       16000,        4200,         700
3129,       36000,        4200,         700
3130,       56000,        4200,         700
3131,       76000,        4200,         700
3132,       96000,        4200,         700
3133,      116000,        4200,         700
3134,      136000,        4200,         700
3135,      156000,        4200,         700
3136,      176000,        4200,         700
3137,      196000,        4200,         700
3138,      216000,        4200,         700
3139,      236000,        4200,         700
3140,      256000,        4200,         700
3141,      276000,        4200,         700
3142,      296000,        4200,         700
3143,      316000,        4200,         700
3144,      336000,        4200,         700
3145,      356000,        4200,         700
3146,      376000,        4200,         700
3147,      396000,        4200,         700
3148,       17000,        4200,         700
3149,       37000,        4200,         700
3150,       57000,        4200,         700
3151,       77000,        4200,         700
3152,       97000,        4200,         700
3153,      117000,        4200,         700
3154,      137000,        4200,         700
3155,      157000,        4200,         700
3156,      177000,        4200,         700
3157,      197000,        4200,         700
3158,      217000,        4200,         700
3159,      237000,        4200,         700
3160,      257000,        4200,         700
3161,      277000,        4200,         700
3162,      297000,        4200,         700
3163,      317000,        4200,         700
3164,      337000,        4200,         700
3165,      357000,        4200,         700
3166,      377000,        4200,         700
3167,      397000,        4200,         700
3168,       18000,        4200,         700
3169,       38000,        4200,         700
3170,       58000,        4200,         700
3171,       78000,        4200,         700
3172,       98000,        4200,         700
3173,      118000,        4200,         700
3174,      138000,        4200,         700
3175,      158000,        4200,         700
3176,      178000,        4200,         700
3177,      198000,        4200,         700
3178,      218000,        4200,         700
3179,      238000,        4200,         700
3180,      258000,        4200,         700
3181,      278000,        4200,         700
3182,      298000,        4200,         700
3183,      318000,        4200,         700
3184,      338000,        4200,         700
3185,      358000,        4200,         700
3186,      378000,        4200,         700
3187,      398000,        4200,         700
3188,       19000,        4200,         700
3189,       39000,        4200,         700
3190,       59000,        4200,         700
3191,       79000,        4200,         700
3192,       99000,        4200,         700
3193,      119000,        4200,         700
3194,      139000,        4200,         700
3195,      159000,        4200,         700
3196,      179000,        4200,         700
3197,      199000,        4200,         700
3198,      219000,        4200,         700
3199,      239000,        4200,         700
3200,      259000,        4200,         700
3201,      279000,        4200,         700
3202,      299000,        4200,         700
3203,      319000,        4200,         700
3204,      339000,        4200,         700
3205,      359000,        4200,         700
3206,      379000,        4200,         700
3207,      399000,        4200,         700
3208,      400000,        4200,         700
3209,           0,       -2100,         700
3210,       20000,       -2100,         700
3211,       40000,       -2100,         700
3212,       60000,       -2100,         700
3213,       80000,       -2100,         700
3214,      100000,       -2100,         700
3215,      120000,       -2100,         700
3216,      140000,       -2100,         700
3217,      160000,       -2100,         700
3218,      180000,       -2100,         700
3219,      200000,       -2100,         700
3220,      220000,       -2100,         700
3221,      240000,       -2100,         700
3222,      260000,       -2100,         700
3223,      280000,       -2100,         700
3224,      300000,       -2100,         700
3225,      320000,       -2100,         700
3226,      340000,       -2100,         700
3227,      360000,       -2100,         700
3228,      380000,       -2100,         700
3229,        1000,       -2100,         700
3230,       21000,       -2100,         700
3231,       41000,       -2100,         700
3232,       61000,       -2100,         700
3233,       81000,       -2100,         700
3234,      101000,       -2100,         700
3235,      121000,       -2100,         700
3236,      141000,       -2100,         700
3237,      161000,       -2100,         700
3238,      181000,       -2100,         700
3239,      201000,       -2100,         700
3240,      221000,       -2100,         700
3241,      241000,       -2100,         700
3242,      261000,       -2100,         700
3243,      281000,       -2100,         700
3244,      301000,       -2100,         700
3245,      321000,       -2100,         700
3246,      341000,       -2100,         700
3247,      361000,       -2100,         700
3248,      381000,       -2100,         700
3249,        2000,       -2100,         700
3250,       22000,       -2100,         700
3251,       42000,       -2100,         700
3252,       62000,       -2100,         700
3253,       82000,       -2100,         700
3254,      102000,       -2100,         700
3255,      122000,       -2100,         700
3256,      142000,       -2100,         700
3257,      162000,       -2100,         700
3258,      182000,       -2100,         700
3259,      202000,       -2100,         700
3260,      222000,       -2100,         700
3261,      242000,       -2100,         700
3262,      262000,       -2100,         700
3263,      282000,       -2100,         700
3264,      302000,       -2100,         700
3265,      322000,       -2100,         700
3266,      342000,       -2100,         700
3267,      362000,       -2100,         700
3268,      382000,       -2100,         700
3269,        3000,       -2100,         700
3270,       23000,       -2100,         700
3271,       43000,       -2100,         700
3272,       63000,       -2100,         700
3273,       83000,       -2100,         700
3274,      103000,       -2100,         700
3275,      123000,       -2100,         700
3276,      143000,       -2100,         700
3277,      163000,       -2100,         700
3278,      183000,       -2100,         700
3279,      203000,       -2100,         700
3280,      223000,       -2100,         700
3281,      243000,       -2100,         700
3282,      263000,       -2100,         700
3283,      283000,       -2100,         700
3284,      303000,       -2100,         700
3285,      323000,       -2100,         700
3286,      343000,       -2100,         700
3287,      363000,       -2100,         700
3288,      383000,       -2100,         700
3289,        4000,       -2100,         700
3290,       24000,       -2100,         700
3291,       44000,       -2100,         700
3292,       64000,       -2100,         700
3293,       84000,       -2100,         700
3294,      104000,       -2100,         700
3295,      124000,       -2100,         700
3296,      144000,       -2100,         700
3297,      164000,       -2100,         700
3298,      184000,       -2100,         700
3299,      204000,       -2100,         700
3300,      224000,       -2100,         700
3301,      244000,       -2100,         700
3302,      264000,       -2100,         700
3303,      284000,       -2100,         700
3304,      304000,       -2100,         700
3305,      324000,       -2100,         700
3306,      344000,       -2100,         700
3307,      364000,       -2100,         700
3308,      384000,       -2100,         700
3309,        5000,       -2100,         700
3310,       25000,       -2100,         700
3311,       45000,       -2100,         700
3312,       65000,       -2100,         700
3313,       85000,       -2100,         700
3314,      105000,       -2100,         700
3315,      125000,       -2100,         700
3316,      145000,       -2100,         700
3317,      165000,       -2100,         700
3318,      185000,       -2100,         700
3319,      205000,       -2100,         700
3320,      225000,       -2100,         700
3321,      245000,       -2100,         700
3322,      265000,       -2100,         700
3323,      285000,       -2100,         700
3324,      305000,       -2100,         700
3325,      325000,       -2100,         700
3326,      345000,       -2100,         700
3327,      365000,       -2100,         700
3328,      385000,       -2100,         700
3329,        6000,       -2100,         700
3330,       26000,       -2100,         700
3331,       46000,       -2100,         700
3332,       66000,       -2100,         700
3333,       86000,       -2100,         700
3334,      106000,       -2100,         700
3335,      126000,       -2100,         700
3336,      146000,       -2100,         700
3337,      166000,       -2100,         700
3338,      186000,       -2100,         700
3339,      206000,       -2100,         700
3340,      226000,       -2100,         700
3341,      246000,       -2100,         700
3342,      266000,       -2100,         700
3343,      286000,       -2100,         700
3344,      306000,       -2100,         700
3345,      326000,       -2100,         700
3346,      346000,       -2100,         700
3347,      366000,       -2100,         700
3348,      386000,       -2100,         700
3349,        7000,       -2100,         700
3350,       27000,       -2100,         700
3351,       47000,       -2100,         700
3352,       67000,       -2100,         700
3353,       87000,       -2100,         700
3354,      107000,       -2100,         700
3355,      127000,       -2100,         700
3356,      147000,       -2100,         700
3357,      167000,       -2100,         700
3358,      187000,       -2100,         700
3359,      207000,       -2100,         700
3360,      227000,       -2100,         700
3361,      247000,       -2100,         700
3362,      267000,       -2100,         700
3363,      287000,       -2100,         700
3364,      307000,       -2100,         700
3365,      327000,       -2100,         700
3366,      347000,       -2100,         700
3367,      367000,       -2100,         700
3368,      387000,       -2100,         700
3369,        8000,       -2100,         700
3370,       28000,       -2100,         700
3371,       48000,       -2100,         700
3372,       68000,       -2100,         700
3373,       88000,       -2100,         700
3374,      108000,       -2100,         700
3375,      128000,       -2100,         700
3376,      148000,       -2100,         700
3377,      168000,       -2100,         700
3378,      188000,       -2100,         700
3379,      208000,       -2100,         700
3380,      228000,       -2100,         700
3381,      248000,       -2100,         700
3382,      268000,       -2100,         700
3383,      288000,       -2100,         700
3384,      308000,       -2100,         700
3385,      328000,       -2100,         700
3386,      348000,       -2100,         700
3387,      368000,       -2100,         700
3388,      388000,       -2100,         700
3389,        9000,       -2100,         700
3390,       29000,       -2100,         700
3391,       49000,       -2100,         700
3392,       69000,       -2100,         700
3393,       89000,       -2100,         700
3394,      109000,       -2100,         700
3395,      129000,       -2100,         700
3396,      149000,       -2100,         700
3397,      169000,       -2100,         700
3398,      189000,       -2100,         700
3399,      209000,       -2100,         700
3400,      229000,       -2100,         700
3401,      249000,       -2100,         700
3402,      269000,       -2100,         700
3403,      289000,       -2100,         700
3404,      309000,       -2100,         700
3405,      329000,       -2100,         700
3406,      349000,       -2100,         700
3407,      369000,       -2100,         700
3408,      389000,       -2100,         700
3409,       10000,       -2100,         700
3410,       30000,       -2100,         700
3411,       50000,       -2100,         700
3412,       70000,       -2100,         700
3413,       90000,       -2100,         700
3414,      110000,       -2100,         700
3415,      130000,       -2100,         700
3416,      150000,       -2100,         700
3417,      170000,       -2100,         700
3418,      190000,       -2100,         700
3419,      210000,       -2100,         700
3420,      230000,       -2100,         700
3421,      250000,       -2100,         700
3422,      270000,       -2100,         700
3423,      290000,       -2100,         700
3424,      310000,       -2100,         700
3425,      330000,       -2100,         700
3426,      350000,       -2100,         700
3427,      370000,       -2100,         700
3428,      390000,       -2100,         700
3429,       11000,       -2100,         700
3430,       31000,       -2100,         700
3431,       51000,       -2100,         700
3432,       71000,       -2100,         700
3433,       91000,       -2100,         700
3434,      111000,       -2100,         700
3435,      131000,       -2100,         700
3436,      151000,       -2100,         700
3437,      171000,       -2100,         700
3438,      191000,       -2100,         700
3439,      211000,       -2100,         700
3440,      231000,       -2100,         700
3441,      251000,       -2100,         700
3442,      271000,       -2100,         700
3443,      291000,       -2100,         700
3444,      311000,       -2100,         700
3445,      331000,       -2100,         700
3446,      351000,       -2100,         700
3447,      371000,       -2100,         700
3448,      391000,       -2100,         700
3449,       12000,       -2100,         700
3450,       32000,       -2100,         700
3451,       52000,       -2100,         700
3452,       72000,       -2100,         700
3453,       92000,       -2100,         700
3454,      112000,       -2100,         700
3455,      132000,       -2100,         700
3456,      152000,       -2100,         700
3457,      172000,       -2100,         700
3458,      192000,       -2100,         700
3459,      212000,       -2100,         700
3460,      232000,       -2100,         700
3461,      252000,       -2100,         700
3462,      272000,       -2100,         700
3463,      292000,       -2100,         700
3464,      312000,       -2100,         700
3465,      332000,       -2100,         700
3466,      352000,       -2100,         700
3467,      372000,       -2100,         700
3468,      392000,       -2100,         700
3469,       13000,       -2100,         700
3470,       33000,       -2100,         700
3471,       53000,       -2100,         700
3472,       73000,       -2100,         700
3473,       93000,       -2100,         700
3474,      113000,       -2100,         700
3475,      133000,       -2100,         700
3476,      153000,       -2100,         700
3477,      173000,       -2100,         700
3478,      193000,       -2100,         700
3479,      213000,       -2100,         700
3480,      233000,       -2100,         700
3481,      253000,       -2100,         700
3482,      273000,       -2100,         700
3483,      293000,       -2100,         700
3484,      313000,       -2100,         700
3485,      333000,       -2100,         700
3486,      353000,       -2100,         700
3487,      373000,       -2100,         700
3488,      393000,       -2100,         700
3489,       14000,       -2100,         700
3490,       34000,       -2100,         700
3491,       54000,       -2100,         700
3492,       74000,       -2100,         700
3493,       94000,       -2100,         700
3494,      114000,       -2100,         700
3495,      134000,       -2100,         700
3496,      154000,       -2100,         700
3497,      174000,       -2100,         700
3498,      194000,       -2100,         700
3499,      214000,       -2100,         700
3500,      234000,       -2100,         700
3501,      254000,       -2100,         700
3502,      274000,       -2100,         700
3503,      294000,       -2100,         700
3504,      314000,       -2100,         700
3505,      334000,       -2100,         700
3506,      354000,       -2100,         700
3507,      374000,       -2100,         700
3508,      394000,       -2100,         700
3509,       15000,       -2100,         700
3510,       35000,       -2100,         700
3511,       55000,       -2100,         700
3512,       75000,       -2100,         700
3513,       95000,       -2100,         700
3514,      115000,       -2100,         700
3515,      135000,       -2100,         700
3516,      155000,       -2100,         700
3517,      175000,       -2100,         700
3518,      195000,       -2100,         700
3519,      215000,       -2100,         700
3520,      235000,       -2100,         700
3521,      255000,       -2100,         700
3522,      275000,       -2100,         700
3523,      295000,       -2100,         700
3524,      315000,       -2100,         700
3525,      335000,       -2100,         700
3526,      355000,       -2100,         700
3527,      375000,       -2100,         700
3528,      395000,       -2100,         700
3529,       16000,       -2100,         700
3530,       36000,       -2100,         700
3531,       56000,       -2100,         700
3532,       76000,       -2100,         700
3533,       96000,       -2100,         700
3534,      116000,       -2100,         700
3535,      136000,       -2100,         700
3536,      156000,       -2100,         700
3537,      176000,       -2100,         700
3538,      196000,       -2100,         700
3539,      216000,       -2100,         700
3540,      236000,       -2100,         700
3541,      256000,       -2100,         700
3542,      276000,       -2100,         700
3543,      296000,       -2100,         700
3544,      316000,       -2100,         700
3545,      336000,       -2100,         700
3546,      356000,       -2100,         700
3547,      376000,       -2100,         700
3548,      396000,       -2100,         700
3549,       17000,       -2100,         700
3550,       37000,       -2100,         700
3551,       57000,       -2100,         700
3552,       77000,       -2100,         700
3553,       97000,       -2100,         700
3554,      117000,       -2100,         700
3555,      137000,       -2100,         700
3556,      157000,       -2100,         700
3557,      177000,       -2100,         700
3558,      197000,       -2100,         700
3559,      217000,       -2100,         700
3560,      237000,       -2100,         700
3561,      257000,       -2100,         700
3562,      277000,       -2100,         700
3563,      297000,       -2100,         700
3564,      317000,       -2100,         700
3565,      337000,       -2100,         700
3566,      357000,       -2100,         700
3567,      377000,       -2100,         700
3568,      397000,       -2100,         700
3569,       18000,       -2100,         700
3570,       38000,       -2100,         700
3571,       58000,       -2100,         700
3572,       78000,       -2100,         700
3573,       98000,       -2100,         700
3574,      118000,       -2100,         700
3575,      138000,       -2100,         700
3576,      158000,       -2100,         700
3577,      178000,       -2100,         700
3578,      198000,       -2100,         700
3579,      218000,       -2100,         700
3580,      238000,       -2100,         700
3581,      258000,       -2100,         700
3582,      278000,       -2100,         700
3583,      298000,       -2100,         700
3584,      318000,       -2100,         700
3585,      338000,       -2100,         700
3586,      358000,       -2100,         700
3587,      378000,       -2100,         700
3588,      398000,       -2100,         700
3589,       19000,       -2100,         700
3590,       39000,       -2100,         700
3591,       59000,       -2100,         700
3592,       79000,       -2100,         700
3593,       99000,       -2100,         700
3594,      119000,       -2100,         700
3595,      139000,       -2100,         700
3596,      159000,       -2100,         700
3597,      179000,       -2100,         700
3598,      199000,       -2100,         700
3599,      219000,       -2100,         700
3600,      239000,       -2100,         700
3601,      259000,       -2100,         700
3602,      279000,       -2100,         700
3603,      299000,       -2100,         700
3604,      319000,       -2100,         700
3605,      339000,       -2100,         700
3606,      359000,       -2100,         700
3607,      379000,       -2100,         700
3608,      399000,       -2100,         700
3609,      400000,       -2100,         700
3610,           0,       -4200,         700
3611,       20000,       -4200,         700
3612,       40000,       -4200,         700
3613,       60000,       -4200,         700
3614,       80000,       -4200,         700
3615,      100000,       -4200,         700
3616,      120000,       -4200,         700
3617,      140000,       -4200,         700
3618,      160000,       -4200,         700
3619,      180000,       -4200,         700
3620,      200000,       -4200,         700
3621,      220000,       -4200,         700
3622,      240000,       -4200,         700
3623,      260000,       -4200,         700
3624,      280000,       -4200,         700
3625,      300000,       -4200,         700
3626,      320000,       -4200,         700
3627,      340000,       -4200,         700
3628,      360000,       -4200,         700
3629,      380000,       -4200,         700
3630,        1000,       -4200,         700
3631,       21000,       -4200,         700
3632,       41000,       -4200,         700
3633,       61000,       -4200,         700
3634,       81000,       -4200,         700
3635,      101000,       -4200,         700
3636,      121000,       -4200,         700
3637,      141000,       -4200,         700
3638,      161000,       -4200,         700
3639,      181000,       -4200,         700
3640,      201000,       -4200,         700
3641,      221000,       -4200,         700
3642,      241000,       -4200,         700
3643,      261000,       -4200,         700
3644,      281000,       -4200,         700
3645,      301000,       -4200,         700
3646,      321000,       -4200,         700
3647,      341000,       -4200,         700
3648,      361000,       -4200,         700
3649,      381000,       -4200,         700
3650,        2000,       -4200,         700
3651,       22000,       -4200,         700
3652,       42000,       -4200,         700
3653,       62000,       -4200,         700
3654,       82000,       -4200,         700
3655,      102000,       -4200,         700
3656,      122000,       -4200,         700
3657,      142000,       -4200,         700
3658,      162000,       -4200,         700
3659,      182000,       -4200,         700
3660,      202000,       -4200,         700
3661,      222000,       -4200,         700
3662,      242000,       -4200,         700
3663,      262000,       -4200,         700
3664,      282000,       -4200,         700
3665,      302000,       -4200,         700
3666,      322000,       -4200,         700
3667,      342000,       -4200,         700
3668,      362000,       -4200,         700
3669,      382000,       -4200,         700
3670,        3000,       -4200,         700
3671,       23000,       -4200,         700
3672,       43000,       -4200,         700
3673,       63000,       -4200,         700
3674,       83000,       -4200,         700
3675,      103000,       -4200,         700
3676,      123000,       -4200,         700
3677,      143000,       -4200,         700
3678,      163000,       -4200,         700
3679,      183000,       -4200,         700
3680,      203000,       -4200,         700
3681,      223000,       -4200,         700
3682,      243000,       -4200,         700
3683,      263000,       -4200,         700
3684,      283000,       -4200,         700
3685,      303000,       -4200,         700
3686,      323000,       -4200,         700
3687,      343000,       -4200,         700
3688,      363000,       -4200,         700
3689,      383000,       -4200,         700
3690,        4000,       -4200,         700
3691,       24000,       -4200,         700
3692,       44000,       -4200,         700
3693,       64000,       -4200,         700
3694,       84000,       -4200,         700
3695,      104000,       -4200,         700
3696,      124000,       -4200,         700
3697,      144000,       -4200,         700
3698,      164000,       -4200,         700
3699,      184000,       -4200,         700
3700,      204000,       -4200,         700
3701,      224000,       -4200,         700
3702,      244000,       -4200,         700
3703,      264000,       -4200,         700
3704,      284000,       -4200,         700
3705,      304000,       -4200,         700
3706,      324000,       -4200,         700
3707,      344000,       -4200,         700
3708,      364000,       -4200,         700
3709,      384000,       -4200,         700
3710,        5000,       -4200,         700
3711,       25000,       -4200,         700
3712,       45000,       -4200,         700
3713,       65000,       -4200,         700
3714,       85000,       -4200,         700
3715,      105000,       -4200,         700
3716,      125000,       -4200,         700
3717,      145000,       -4200,         700
3718,      165000,       -4200,         700
3719,      185000,       -4200,         700
3720,      205000,       -4200,         700
3721,      225000,       -4200,         700
3722,      245000,       -4200,         700
3723,      265000,       -4200,         700
3724,      285000,       -4200,         700
3725,      305000,       -4200,         700
3726,      325000,       -4200,         700
3727,      345000,       -4200,         700
3728,      365000,       -4200,         700
3729,      385000,       -4200,         700
3730,        6000,       -4200,         700
3731,       26000,       -4200,         700
3732,       46000,       -4200,         700
3733,       66000,       -4200,         700
3734,       86000,       -4200,         700
3735,      106000,       -4200,         700
3736,      126000,       -4200,         700
3737,      146000,       -4200,         700
3738,      166000,       -4200,         700
3739,      186000,       -4200,         700
3740,      206000,       -4200,         700
3741,      226000,       -4200,         700
3742,      246000,       -4200,         700
3743,      266000,       -4200,         700
3744,      286000,       -4200,         700
3745,      306000,       -4200,         700
3746,      326000,       -4200,         700
3747,      346000,       -4200,         700
3748,      366000,       -4200,         700
3749,      386000,       -4200,         700
3750,        7000,       -4200,         700
3751,       27000,       -4200,         700
3752,       47000,       -4200,         700
3753,       67000,       -4200,         700
3754,       87000,       -4200,         700
3755,      107000,       -4200,         700
3756,      127000,       -4200,         700
3757,      147000,       -4200,         700
3758,      167000,       -4200,         700
3759,      187000,       -4200,         700
3760,      207000,       -4200,         700
3761,      227000,       -4200,         700
3762,      247000,       -4200,         700
3763,      267000,       -4200,         700
3764,      287000,       -4200,         700
3765,      307000,       -4200,         700
3766,      327000,       -4200,         700
3767,      347000,       -4200,         700
3768,      367000,       -4200,         700
3769,      387000,       -4200,         700
3770,        8000,       -4200,         700
3771,       28000,       -4200,         700
3772,       48000,       -4200,         700
3773,       68000,       -4200,         700
3774,       88000,       -4200,         700
3775,      108000,       -4200,         700
3776,      128000,       -4200,         700
3777,      148000,       -4200,         700
3778,      168000,       -4200,         700
3779,      188000,       -4200,         700
3780,      208000,       -4200,         700
3781,      228000,       -4200,         700
3782,      248000,       -4200,         700
3783,      268000,       -4200,         700
3784,      288000,       -4200,         700
3785,      308000,       -4200,         700
3786,      328000,       -4200,         700
3787,      348000,       -4200,         700
3788,      368000,       -4200,         700
3789,      388000,       -4200,         700
3790,        9000,       -4200,         700
3791,       29000,       -4200,         700
3792,       49000,       -4200,         700
3793,       69000,       -4200,         700
3794,       89000,       -4200,         700
3795,      109000,       -4200,         700
3796,      129000,       -4200,         700
3797,      149000,       -4200,         700
3798,      169000,       -4200,         700
3799,      189000,       -4200,         700
3800,      209000,       -4200,         700
3801,      229000,       -4200,         700
3802,      249000,       -4200,         700
3803,      269000,       -4200,         700
3804,      289000,       -4200,         700
3805,      309000,       -4200,         700
3806,      329000,       -4200,         700
3807,      349000,       -4200,         700
3808,      369000,       -4200,         700
3809,      389000,       -4200,         700
3810,       10000,       -4200,         700
3811,       30000,       -4200,         700
3812,       50000,       -4200,         700
3813,       70000,       -4200,         700
3814,       90000,       -4200,         700
3815,      110000,       -4200,         700
3816,      130000,       -4200,         700
3817,      150000,       -4200,         700
3818,      170000,       -4200,         700
3819,      190000,       -4200,         700
3820,      210000,       -4200,         700
3821,      230000,       -4200,         700
3822,      250000,       -4200,         700
3823,      270000,       -4200,         700
3824,      290000,       -4200,         700
3825,      310000,       -4200,         700
3826,      330000,       -4200,         700
3827,      350000,       -4200,         700
3828,      370000,       -4200,         700
3829,      390000,       -4200,         700
3830,       11000,       -4200,         700
3831,       31000,       -4200,         700
3832,       51000,       -4200,         700
3833,       71000,       -4200,         700
3834,       91000,       -4200,         700
3835,      111000,       -4200,         700
3836,      131000,       -4200,         700
3837,      151000,       -4200,         700
3838,      171000,       -4200,         700
3839,      191000,       -4200,         700
3840,      211000,       -4200,         700
3841,      231000,       -4200,         700
3842,      251000,       -4200,         700
3843,      271000,       -4200,         700
3844,      291000,       -4200,         700
3845,      311000,       -4200,         700
3846,      331000,       -4200,         700
3847,      351000,       -4200,         700
3848,      371000,       -4200,         700
3849,      391000,       -4200,         700
3850,       12000,       -4200,         700
3851,       32000,       -4200,         700
3852,       52000,       -4200,         700
3853,       72000,       -4200,         700
3854,       92000,       -4200,         700
3855,      112000,       -4200,         700
3856,      132000,       -4200,         700
3857,      152000,       -4200,         700
3858,      172000,       -4200,         700
3859,      192000,       -4200,         700
3860,      212000,       -4200,         700
3861,      232000,       -4200,         700
3862,      252000,       -4200,         700
3863,      272000,       -4200,         700
3864,      292000,       -4200,         700
3865,      312000,       -4200,         700
3866,      332000,       -4200,         700
3867,      352000,       -4200,         700
3868,      372000,       -4200,         700
3869,      392000,       -4200,         700
3870,       13000,       -4200,         700
3871,       33000,       -4200,         700
3872,       53000,       -4200,         700
3873,       73000,       -4200,         700
3874,       93000,       -4200,         700
3875,      113000,       -4200,         700
3876,      133000,       -4200,         700
3877,      153000,       -4200,         700
3878,      173000,       -4200,         700
3879,      193000,       -4200,         700
3880,      213000,       -4200,         700
3881,      233000,       -4200,         700
3882,      253000,       -4200,         700
3883,      273000,       -4200,         700
3884,      293000,       -4200,         700
3885,      313000,       -4200,         700
3886,      333000,       -4200,         700
3887,      353000,       -4200,         700
3888,      373000,       -4200,         700
3889,      393000,       -4200,         700
3890,       14000,       -4200,         700
3891,       34000,       -4200,         700
3892,       54000,       -4200,         700
3893,       74000,       -4200,         700
3894,       94000,       -4200,         700
3895,      114000,       -4200,         700
3896,      134000,       -4200,         700
3897,      154000,       -4200,         700
3898,      174000,       -4200,         700
3899,      194000,       -4200,         700
3900,      214000,       -4200,         700
3901,      234000,       -4200,         700
3902,      254000,       -4200,         700
3903,      274000,       -4200,         700
3904,      294000,       -4200,         700
3905,      314000,       -4200,         700
3906,      334000,       -4200,         700
3907,      354000,       -4200,         700
3908,      374000,       -4200,         700
3909,      394000,       -4200,         700
3910,       15000,       -4200,         700
3911,       35000,       -4200,         700
3912,       55000,       -4200,         700
3913,       75000,       -4200,         700
3914,       95000,       -4200,         700
3915,      115000,       -4200,         700
3916,      135000,       -4200,         700
3917,      155000,       -4200,         700
3918,      175000,       -4200,         700
3919,      195000,       -4200,         700
3920,      215000,       -4200,         700
3921,      235000,       -4200,         700
3922,      255000,       -4200,         700
3923,      275000,       -4200,         700
3924,      295000,       -4200,         700
3925,      315000,       -4200,         700
3926,      335000,       -4200,         700
3927,      355000,       -4200,         700
3928,      375000,       -4200,         700
3929,      395000,       -4200,         700
3930,       16000,       -4200,         700
3931,       36000,       -4200,         700
3932,       56000,       -4200,         700
3933,       76000,       -4200,         700
3934,       96000,       -4200,         700
3935,      116000,       -4200,         700
3936,      136000,       -4200,         700
3937,      156000,       -4200,         700
3938,      176000,       -4200,         700
3939,      196000,       -4200,         700
3940,      216000,       -4200,         700
3941,      236000,       -4200,         700
3942,      256000,       -4200,         700
3943,      276000,       -4200,         700
3944,      296000,       -4200,         700
3945,      316000,       -4200,         700
3946,      336000,       -4200,         700
3947,      356000,       -4200,         700
3948,      376000,       -4200,         700
3949,      396000,       -4200,         700
3950,       17000,       -4200,         700
3951,       37000,       -4200,         700
3952,       57000,       -4200,         700
3953,       77000,       -4200,         700
3954,       97000,       -4200,         700
3955,      117000,       -4200,         700
3956,      137000,       -4200,         700
3957,      157000,       -4200,         700
3958,      177000,       -4200,         700
3959,      197000,       -4200,         700
3960,      217000,       -4200,         700
3961,      237000,       -4200,         700
3962,      257000,       -4200,         700
3963,      277000,       -4200,         700
3964,      297000,       -4200,         700
3965,      317000,       -4200,         700
3966,      337000,       -4200,         700
3967,      357000,       -4200,         700
3968,      377000,       -4200,         700
3969,      397000,       -4200,         700
3970,       18000,       -4200,         700
3971,       38000,       -4200,         700
3972,       58000,       -4200,         700
3973,       78000,       -4200,         700
3974,       98000,       -4200,         700
3975,      118000,       -4200,         700
3976,      138000,       -4200,         700
3977,      158000,       -4200,         700
3978,      178000,       -4200,         700
3979,      198000,       -4200,         700
3980,      218000,       -4200,         700
3981,      238000,       -4200,         700
3982,      258000,       -4200,         700
3983,      278000,       -4200,         700
3984,      298000,       -4200,         700
3985,      318000,       -4200,         700
3986,      338000,       -4200,         700
3987,      358000,       -4200,         700
3988,      378000,       -4200,         700
3989,      398000,       -4200,         700
3990,       19000,       -4200,         700
3991,       39000,       -4200,         700
3992,       59000,       -4200,         700
3993,       79000,       -4200,         700
3994,       99000,       -4200,         700
3995,      119000,       -4200,         700
3996,      139000,       -4200,         700
3997,      159000,       -4200,         700
3998,      179000,       -4200,         700
3999,      199000,       -4200,         700
4000,      219000,       -4200,         700
4001,      239000,       -4200,         700
4002,      259000,       -4200,         700
4003,      279000,       -4200,         700
4004,      299000,       -4200,         700
4005,      319000,       -4200,         700
4006,      339000,       -4200,         700
4007,      359000,       -4200,         700
4008,      379000,       -4200,         700
4009,      399000,       -4200,         700
4010,      400000,       -4200,         700
4011,        1000,       -6000,         700
4012,        1000,       -5100,         700
4013,           0,       -5100,         700
4014,           0,       -6000,         700
4015,       21000,       -6000,         700
4016,       21000,       -5100,         700
4017,       20000,       -5100,         700
4018,       20000,       -6000,         700
4019,       41000,       -6000,         700
4020,       41000,       -5100,         700
4021,       40000,       -5100,         700
4022,       40000,       -6000,         700
4023,       61000,       -6000,         700
4024,       61000,       -5100,         700
4025,       60000,       -5100,         700
4026,       60000,       -6000,         700
4027,       81000,       -6000,         700
4028,       81000,       -5100,         700
4029,       80000,       -5100,         700
4030,       80000,       -6000,         700
4031,      101000,       -6000,         700
4032,      101000,       -5100,         700
4033,      100000,       -5100,         700
4034,      100000,       -6000,         700
4035,      121000,       -6000,         700
4036,      121000,       -5100,         700
4037,      120000,       -5100,         700
4038,      120000,       -6000,         700
4039,      141000,       -6000,         700
4040,      141000,       -5100,         700
4041,      140000,       -5100,         700
4042,      140000,       -6000,         700
4043,      161000,       -6000,         700
4044,      161000,       -5100,         700
4045,      160000,       -5100,         700
4046,      160000,       -6000,         700
4047,      181000,       -6000,         700
4048,      181000,       -5100,         700
4049,      180000,       -5100,         700
4050,      180000,       -6000,         700
4051,      201000,       -6000,         700
4052,      201000,       -5100,         700
4053,      200000,       -5100,         700
4054,      200000,       -6000,         700
4055,      221000,       -6000,         700
4056,      221000,       -5100,         700
4057,      220000,       -5100,         700
4058,      220000,       -6000,         700
4059,      241000,       -6000,         700
4060,      241000,       -5100,         700
4061,      240000,       -5100,         700
4062,      240000,       -6000,         700
4063,      261000,       -6000,         700
4064,      261000,       -5100,         700
4065,      260000,       -5100,         700
4066,      260000,       -6000,         700
4067,      281000,       -6000,         700
4068,      281000,       -5100,         700
4069,      280000,       -5100,         700
4070,      280000,       -6000,         700
4071,      301000,       -6000,         700
4072,      301000,       -5100,         700
4073,      300000,       -5100,         700
4074,      300000,       -6000,         700
4075,      321000,       -6000,         700
4076,      321000,       -5100,         700
4077,      320000,       -5100,         700
4078,      320000,       -6000,         700
4079,      341000,       -6000,         700
4080,      341000,       -5100,         700
4081,      340000,       -5100,         700
4082,      340000,       -6000,         700
4083,      361000,       -6000,         700
4084,      361000,       -5100,         700
4085,      360000,       -5100,         700
4086,      360000,       -6000,         700
4087,      381000,       -6000,         700
4088,      381000,       -5100,         700
4089,      380000,       -5100,         700
4090,      380000,       -6000,         700
4091,        1000,       -3150,         700
4092,           0,       -3150,         700
4093,       21000,       -3150,         700
4094,       20000,       -3150,         700
4095,       41000,       -3150,         700
4096,       40000,       -3150,         700
4097,       61000,       -3150,         700
4098,       60000,       -3150,         700
4099,       81000,       -3150,         700
4100,       80000,       -3150,         700
4101,      101000,       -3150,         700
4102,      100000,       -3150,         700
4103,      121000,       -3150,         700
4104,      120000,       -3150,         700
4105,      141000,       -3150,         700
4106,      140000,       -3150,         700
4107,      161000,       -3150,         700
4108,      160000,       -3150,         700
4109,      181000,       -3150,         700
4110,      180000,       -3150,         700
4111,      201000,       -3150,         700
4112,      200000,       -3150,         700
4113,      221000,       -3150,         700
4114,      220000,       -3150,         700
4115,      241000,       -3150,         700
4116,      240000,       -3150,         700
4117,      261000,       -3150,         700
4118,      260000,       -3150,         700
4119,      281000,       -3150,         700
4120,      280000,       -3150,         700
4121,      301000,       -3150,         700
4122,      300000,       -3150,         700
4123,      321000,       -3150,         700
4124,      320000,       -3150,         700
4125,      341000,       -3150,         700
4126,      340000,       -3150,         700
4127,      361000,       -3150,         700
4128,      360000,       -3150,         700
4129,      381000,       -3150,         700
4130,      380000,       -3150,         700
4131,        1000,       -1050,         700
4132,           0,       -1050,         700
4133,       21000,       -1050,         700
4134,       20000,       -1050,         700
4135,       41000,       -1050,         700
4136,       40000,       -1050,         700
4137,       61000,       -1050,         700
4138,       60000,       -1050,         700
4139,       81000,       -1050,         700
4140,       80000,       -1050,         700
4141,      101000,       -1050,         700
4142,      100000,       -1050,         700
4143,      121000,       -1050,         700
4144,      120000,       -1050,         700
4145,      141000,       -1050,         700
4146,      140000,       -1050,         700
4147,      161000,       -1050,         700
4148,      160000,       -1050,         700
4149,      181000,       -1050,         700
4150,      180000,       -1050,         700
4151,      201000,       -1050,         700
4152,      200000,       -1050,         700
4153,      221000,       -1050,         700
4154,      220000,       -1050,         700
4155,      241000,       -1050,         700
4156,      240000,       -1050,         700
4157,      261000,       -1050,         700
4158,      260000,       -1050,         700
4159,      281000,       -1050,         700
4160,      280000,       -1050,         700
4161,      301000,       -1050,         700
4162,      300000,       -1050,         700
4163,      321000,       -1050,         700
4164,      320000,       -1050,         700
4165,      341000,       -1050,         700
4166,      340000,       -1050,         700
4167,      361000,       -1050,         700
4168,      360000,       -1050,         700
4169,      381000,       -1050,         700
4170,      380000,       -1050,         700
4171,        1000,           0,         700
4172,           0,           0,         700
4173,       21000,           0,         700
4174,       20000,           0,         700
4175,       41000,           0,         700
4176,       40000,           0,         700
4177,       61000,           0,         700
4178,       60000,           0,         700
4179,       81000,           0,         700
4180,       80000,           0,         700
4181,      101000,           0,         700
4182,      100000,           0,         700
4183,      121000,           0,         700
4184,      120000,           0,         700
4185,      141000,           0,         700
4186,      140000,           0,         700
4187,      161000,           0,         700
4188,      160000,           0,         700
4189,      181000,           0,         700
4190,      180000,           0,         700
4191,      201000,           0,         700
4192,      200000,           0,         700
4193,      221000,           0,         700
4194,      220000,           0,         700
4195,      241000,           0,         700
4196,      240000,           0,         700
4197,      261000,           0,         700
4198,      260000,           0,         700
4199,      281000,           0,         700
4200,      280000,           0,         700
4201,      301000,           0,         700
4202,      300000,           0,         700
4203,      321000,           0,         700
4204,      320000,           0,         700
4205,      341000,           0,         700
4206,      340000,           0,         700
4207,      361000,           0,         700
4208,      360000,           0,         700
4209,      381000,           0,         700
4210,      380000,           0,         700
4211,        1000,        1050,         700
4212,           0,        1050,         700
4213,       21000,        1050,         700
4214,       20000,        1050,         700
4215,       41000,        1050,         700
4216,       40000,        1050,         700
4217,       61000,        1050,         700
4218,       60000,        1050,         700
4219,       81000,        1050,         700
4220,       80000,        1050,         700
4221,      101000,        1050,         700
4222,      100000,        1050,         700
4223,      121000,        1050,         700
4224,      120000,        1050,         700
4225,      141000,        1050,         700
4226,      140000,        1050,         700
4227,      161000,        1050,         700
4228,      160000,        1050,         700
4229,      181000,        1050,         700
4230,      180000,        1050,         700
4231,      201000,        1050,         700
4232,      200000,        1050,         700
4233,      221000,        1050,         700
4234,      220000,        1050,         700
4235,      241000,        1050,         700
4236,      240000,        1050,         700
4237,      261000,        1050,         700
4238,      260000,        1050,         700
4239,      281000,        1050,         700
4240,      280000,        1050,         700
4241,      301000,        1050,         700
4242,      300000,        1050,         700
4243,      321000,        1050,         700
4244,      320000,        1050,         700
4245,      341000,        1050,         700
4246,      340000,        1050,         700
4247,      361000,        1050,         700
4248,      360000,        1050,         700
4249,      381000,        1050,         700
4250,      380000,        1050,         700
4251,        1000,        3150,         700
4252,           0,        3150,         700
4253,       21000,        3150,         700
4254,       20000,        3150,         700
4255,       41000,        3150,         700
4256,       40000,        3150,         700
4257,       61000,        3150,         700
4258,       60000,        3150,         700
4259,       81000,        3150,         700
4260,       80000,        3150,         700
4261,      101000,        3150,         700
4262,      100000,        3150,         700
4263,      121000,        3150,         700
4264,      120000,        3150,         700
4265,      141000,        3150,         700
4266,      140000,        3150,         700
4267,      161000,        3150,         700
4268,      160000,        3150,         700
4269,      181000,        3150,         700
4270,      180000,        3150,         700
4271,      201000,        3150,         700
4272,      200000,        3150,         700
4273,      221000,        3150,         700
4274,      220000,        3150,         700
4275,      241000,        3150,         700
4276,      240000,        3150,         700
4277,      261000,        3150,         700
4278,      260000,        3150,         700
4279,      281000,        3150,         700
4280,      280000,        3150,         700
4281,      301000,        3150,         700
4282,      300000,        3150,         700
4283,      321000,        3150,         700
4284,      320000,        3150,         700
4285,      341000,        3150,         700
4286,      340000,        3150,         700
4287,      361000,        3150,         700
4288,      360000,        3150,         700
4289,      381000,        3150,         700
4290,      380000,        3150,         700
4291,        1000,        5100,         700
4292,           0,        5100,         700
4293,       21000,        5100,         700
4294,       20000,        5100,         700
4295,       41000,        5100,         700
4296,       40000,        5100,         700
4297,       61000,        5100,         700
4298,       60000,        5100,         700
4299,       81000,        5100,         700
4300,       80000,        5100,         700
4301,      101000,        5100,         700
4302,      100000,        5100,         700
4303,      121000,        5100,         700
4304,      120000,        5100,         700
4305,      141000,        5100,         700
4306,      140000,        5100,         700
4307,      161000,        5100,         700
4308,      160000,        5100,         700
4309,      181000,        5100,         700
4310,      180000,        5100,         700
4311,      201000,        5100,         700
4312,      200000,        5100,         700
4313,      221000,        5100,         700
4314,      220000,        5100,         700
4315,      241000,        5100,         700
4316,      240000,        5100,         700
4317,      261000,        5100,         700
4318,      260000,        5100,         700
4319,      281000,        5100,         700
4320,      280000,        5100,         700
4321,      301000,        5100,         700
4322,      300000,        5100,         700
4323,      321000,        5100,         700
4324,      320000,        5100,         700
4325,      341000,        5100,         700
4326,      340000,        5100,         700
4327,      361000,        5100,         700
4328,      360000,        5100,         700
4329,      381000,        5100,         700
4330,      380000,        5100,         700
4331,        1000,        6000,         700
4332,           0,        6000,         700
4333,       21000,        6000,         700
4334,       20000,        6000,         700
4335,       41000,        6000,         700
4336,       40000,        6000,         700
4337,       61000,        6000,         700
4338,       60000,        6000,         700
4339,       81000,        6000,         700
4340,       80000,        6000,         700
4341,      101000,        6000,         700
4342,      100000,        6000,         700
4343,      121000,        6000,         700
4344,      120000,        6000,         700
4345,      141000,        6000,         700
4346,      140000,        6000,         700
4347,      161000,        6000,         700
4348,      160000,        6000,         700
4349,      181000,        6000,         700
4350,      180000,        6000,         700
4351,      201000,        6000,         700
4352,      200000,        6000,         700
4353,      221000,        6000,         700
4354,      220000,        6000,         700
4355,      241000,        6000,         700
4356,      240000,        6000,         700
4357,      261000,        6000,         700
4358,      260000,        6000,         700
4359,      281000,        6000,         700
4360,      280000,        6000,         700
4361,      301000,        6000,         700
4362,      300000,        6000,         700
4363,      321000,        6000,         700
4364,      320000,        6000,         700
4365,      341000,        6000,         700
4366,      340000,        6000,         700
4367,      361000,        6000,         700
4368,      360000,        6000,         700
4369,      381000,        6000,         700
4370,      380000,        6000,         700
4371,        2000,       -6000,         700
4372,        2000,       -5100,         700
4373,       22000,       -6000,         700
4374,       22000,       -5100,         700
4375,       42000,       -6000,         700
4376,       42000,       -5100,         700
4377,       62000,       -6000,         700
4378,       62000,       -5100,         700
4379,       82000,       -6000,         700
4380,       82000,       -5100,         700
4381,      102000,       -6000,         700
4382,      102000,       -5100,         700
4383,      122000,       -6000,         700
4384,      122000,       -5100,         700
4385,      142000,       -6000,         700
4386,      142000,       -5100,         700
4387,      162000,       -6000,         700
4388,      162000,       -5100,         700
4389,      182000,       -6000,         700
4390,      182000,       -5100,         700
4391,      202000,       -6000,         700
4392,      202000,       -5100,         700
4393,      222000,       -6000,         700
4394,      222000,       -5100,         700
4395,      242000,       -6000,         700
4396,      242000,       -5100,         700
4397,      262000,       -6000,         700
4398,      262000,       -5100,         700
4399,      282000,       -6000,         700
4400,      282000,       -5100,         700
4401,      302000,       -6000,         700
4402,      302000,       -5100,         700
4403,      322000,       -6000,         700
4404,      322000,       -5100,         700
4405,      342000,       -6000,         700
4406,      342000,       -5100,         700
4407,      362000,       -6000,         700
4408,      362000,       -5100,         700
4409,      382000,       -6000,         700
4410,      382000,       -5100,         700
4411,        2000,       -3150,         700
4412,       22000,       -3150,         700
4413,       42000,       -3150,         700
4414,       62000,       -3150,         700
4415,       82000,       -3150,         700
4416,      102000,       -3150,         700
4417,      122000,       -3150,         700
4418,      142000,       -3150,         700
4419,      162000,       -3150,         700
4420,      182000,       -3150,         700
4421,      202000,       -3150,         700
4422,      222000,       -3150,         700
4423,      242000,       -3150,         700
4424,      262000,       -3150,         700
4425,      282000,       -3150,         700
4426,      302000,       -3150,         700
4427,      322000,       -3150,         700
4428,      342000,       -3150,         700
4429,      362000,       -3150,         700
4430,      382000,       -3150,         700
4431,        2000,       -1050,         700
4432,       22000,       -1050,         700
4433,       42000,       -1050,         700
4434,       62000,       -1050,         700
4435,       82000,       -1050,         700
4436,      102000,       -1050,         700
4437,      122000,       -1050,         700
4438,      142000,       -1050,         700
4439,      162000,       -1050,         700
4440,      182000,       -1050,         700
4441,      202000,       -1050,         700
4442,      222000,       -1050,         700
4443,      242000,       -1050,         700
4444,      262000,       -1050,         700
4445,      282000,       -1050,         700
4446,      302000,       -1050,         700
4447,      322000,       -1050,         700
4448,      342000,       -1050,         700
4449,      362000,       -1050,         700
4450,      382000,       -1050,         700
4451,        2000,           0,         700
4452,       22000,           0,         700
4453,       42000,           0,         700
4454,       62000,           0,         700
4455,       82000,           0,         700
4456,      102000,           0,         700
4457,      122000,           0,         700
4458,      142000,           0,         700
4459,      162000,           0,         700
4460,      182000,           0,         700
4461,      202000,           0,         700
4462,      222000,           0,         700
4463,      242000,           0,         700
4464,      262000,           0,         700
4465,      282000,           0,         700
4466,      302000,           0,         700
4467,      322000,           0,         700
4468,      342000,           0,         700
4469,      362000,           0,         700
4470,      382000,           0,         700
4471,        2000,        1050,         700
4472,       22000,        1050,         700
4473,       42000,        1050,         700
4474,       62000,        1050,         700
4475,       82000,        1050,         700
4476,      102000,        1050,         700
4477,      122000,        1050,         700
4478,      142000,        1050,         700
4479,      162000,        1050,         700
4480,      182000,        1050,         700
4481,      202000,        1050,         700
4482,      222000,        1050,         700
4483,      242000,        1050,         700
4484,      262000,        1050,         700
4485,      282000,        1050,         700
4486,      302000,        1050,         700
4487,      322000,        1050,         700
4488,      342000,        1050,         700
4489,      362000,        1050,         700
4490,      382000,        1050,         700
4491,        2000,        3150,         700
4492,       22000,        3150,         700
4493,       42000,        3150,         700
4494,       62000,        3150,         700
4495,       82000,        3150,         700
4496,      102000,        3150,         700
4497,      122000,        3150,         700
4498,      142000,        3150,         700
4499,      162000,        3150,         700
4500,      182000,        3150,         700
4501,      202000,        3150,         700
4502,      222000,        3150,         700
4503,      242000,        3150,         700
4504,      262000,        3150,         700
4505,      282000,        3150,         700
4506,      302000,        3150,         700
4507,      322000,        3150,         700
4508,      342000,        3150,         700
4509,      362000,        3150,         700
4510,      382000,        3150,         700
4511,        2000,        5100,         700
4512,       22000,        5100,         700
4513,       42000,        5100,         700
4514,       62000,        5100,         700
4515,       82000,        5100,         700
4516,      102000,        5100,         700
4517,      122000,        5100,         700
4518,      142000,        5100,         700
4519,      162000,        5100,         700
4520,      182000,        5100,         700
4521,      202000,        5100,         700
4522,      222000,        5100,         700
4523,      242000,        5100,         700
4524,      262000,        5100,         700
4525,      282000,        5100,         700
4526,      302000,        5100,         700
4527,      322000,        5100,         700
4528,      342000,        5100,         700
4529,      362000,        5100,         700
4530,      382000,        5100,         700
4531,        2000,        6000,         700
4532,       22000,        6000,         700
4533,       42000,        6000,         700
4534,       62000,        6000,         700
4535,       82000,        6000,         700
4536,      102000,        6000,         700
4537,      122000,        6000,         700
4538,      142000,        6000,         700
4539,      162000,        6000,         700
4540,      182000,        6000,         700
4541,      202000,        6000,         700
4542,      222000,        6000,         700
4543,      242000,        6000,         700
4544,      262000,        6000,         700
4545,      282000,        6000,         700
4546,      302000,        6000,         700
4547,      322000,        6000,         700
4548,      342000,        6000,         700
4549,      362000,        6000,         700
4550,      382000,        6000,         700
4551,        3000,       -6000,         700
4552,        3000,       -5100,         700
4553,       23000,       -6000,         700
4554,       23000,       -5100,         700
4555,       43000,       -6000,         700
4556,       43000,       -5100,         700
4557,       63000,       -6000,         700
4558,       63000,       -5100,         700
4559,       83000,       -6000,         700
4560,       83000,       -5100,         700
4561,      103000,       -6000,         700
4562,      103000,       -5100,         700
4563,      123000,       -6000,         700
4564,      123000,       -5100,         700
4565,      143000,       -6000,         700
4566,      143000,       -5100,         700
4567,      163000,       -6000,         700
4568,      163000,       -5100,         700
4569,      183000,       -6000,         700
4570,      183000,       -5100,         700
4571,      203000,       -6000,         700
4572,      203000,       -5100,         700
4573,      223000,       -6000,         700
4574,      223000,       -5100,         700
4575,      243000,       -6000,         700
4576,      243000,       -5100,         700
4577,      263000,       -6000,         700
4578,      263000,       -5100,         700
4579,      283000,       -6000,         700
4580,      283000,       -5100,         700
4581,      303000,       -6000,         700
4582,      303000,       -5100,         700
4583,      323000,       -6000,         700
4584,      323000,       -5100,         700
4585,      343000,       -6000,         700
4586,      343000,       -5100,         700
4587,      363000,       -6000,         700
4588,      363000,       -5100,         700
4589,      383000,       -6000,         700
4590,      383000,       -5100,         700
4591,        3000,       -3150,         700
4592,       23000,       -3150,         700
4593,       43000,       -3150,         700
4594,       63000,       -3150,         700
4595,       83000,       -3150,         700
4596,      103000,       -3150,         700
4597,      123000,       -3150,         700
4598,      143000,       -3150,         700
4599,      163000,       -3150,         700
4600,      183000,       -3150,         700
4601,      203000,       -3150,         700
4602,      223000,       -3150,         700
4603,      243000,       -3150,         700
4604,      263000,       -3150,         700
4605,      283000,       -3150,         700
4606,      303000,       -3150,         700
4607,      323000,       -3150,         700
4608,      343000,       -3150,         700
4609,      363000,       -3150,         700
4610,      383000,       -3150,         700
4611,        3000,       -1050,         700
4612,       23000,       -1050,         700
4613,       43000,       -1050,         700
4614,       63000,       -1050,         700
4615,       83000,       -1050,         700
4616,      103000,       -1050,         700
4617,      123000,       -1050,         700
4618,      143000,       -1050,         700
4619,      163000,       -1050,         700
4620,      183000,       -1050,         700
4621,      203000,       -1050,         700
4622,      223000,       -1050,         700
4623,      243000,       -1050,         700
4624,      263000,       -1050,         700
4625,      283000,       -1050,         700
4626,      303000,       -1050,         700
4627,      323000,       -1050,         700
4628,      343000,       -1050,         700
4629,      363000,       -1050,         700
4630,      383000,       -1050,         700
4631,        3000,           0,         700
4632,       23000,           0,         700
4633,       43000,           0,         700
4634,       63000,           0,         700
4635,       83000,           0,         700
4636,      103000,           0,         700
4637,      123000,           0,         700
4638,      143000,           0,         700
4639,      163000,           0,         700
4640,      183000,           0,         700
4641,      203000,           0,         700
4642,      223000,           0,         700
4643,      243000,           0,         700
4644,      263000,           0,         700
4645,      283000,           0,         700
4646,      303000,           0,         700
4647,      323000,           0,         700
4648,      343000,           0,         700
4649,      363000,           0,         700
4650,      383000,           0,         700
4651,        3000,        1050,         700
4652,       23000,        1050,         700
4653,       43000,        1050,         700
4654,       63000,        1050,         700
4655,       83000,        1050,         700
4656,      103000,        1050,         700
4657,      123000,        1050,         700
4658,      143000,        1050,         700
4659,      163000,        1050,         700
4660,      183000,        1050,         700
4661,      203000,        1050,         700
4662,      223000,        1050,         700
4663,      243000,        1050,         700
4664,      263000,        1050,         700
4665,      283000,        1050,         700
4666,      303000,        1050,         700
4667,      323000,        1050,         700
4668,      343000,        1050,         700
4669,      363000,        1050,         700
4670,      383000,        1050,         700
4671,        3000,        3150,         700
4672,       23000,        3150,         700
4673,       43000,        3150,         700
4674,       63000,        3150,         700
4675,       83000,        3150,         700
4676,      103000,        3150,         700
4677,      123000,        3150,         700
4678,      143000,        3150,         700
4679,      163000,        3150,         700
4680,      183000,        3150,         700
4681,      203000,        3150,         700
4682,      223000,        3150,         700
4683,      243000,        3150,         700
4684,      263000,        3150,         700
4685,      283000,        3150,         700
4686,      303000,        3150,         700
4687,      323000,        3150,         700
4688,      343000,        3150,         700
4689,      363000,        3150,         700
4690,      383000,        3150,         700
4691,        3000,        5100,         700
4692,       23000,        5100,         700
4693,       43000,        5100,         700
4694,       63000,        5100,         700
4695,       83000,        5100,         700
4696,      103000,        5100,         700
4697,      123000,        5100,         700
4698,      143000,        5100,         700
4699,      163000,        5100,         700
4700,      183000,        5100,         700
4701,      203000,        5100,         700
4702,      223000,        5100,         700
4703,      243000,        5100,         700
4704,      263000,        5100,         700
4705,      283000,        5100,         700
4706,      303000,        5100,         700
4707,      323000,        5100,         700
4708,      343000,        5100,         700
4709,      363000,        5100,         700
4710,      383000,        5100,         700
4711,        3000,        6000,         700
4712,       23000,        6000,         700
4713,       43000,        6000,         700
4714,       63000,        6000,         700
4715,       83000,        6000,         700
4716,      103000,        6000,         700
4717,      123000,        6000,         700
4718,      143000,        6000,         700
4719,      163000,        6000,         700
4720,      183000,        6000,         700
4721,      203000,        6000,         700
4722,      223000,        6000,         700
4723,      243000,        6000,         700
4724,      263000,        6000,         700
4725,      283000,        6000,         700
4726,      303000,        6000,         700
4727,      323000,        6000,         700
4728,      343000,        6000,         700
4729,      363000,        6000,         700
4730,      383000,        6000,         700
4731,        4000,       -6000,         700
4732,        4000,       -5100,         700
4733,       24000,       -6000,         700
4734,       24000,       -5100,         700
4735,       44000,       -6000,         700
4736,       44000,       -5100,         700
4737,       64000,       -6000,         700
4738,       64000,       -5100,         700
4739,       84000,       -6000,         700
4740,       84000,       -5100,         700
4741,      104000,       -6000,         700
4742,      104000,       -5100,         700
4743,      124000,       -6000,         700
4744,      124000,       -5100,         700
4745,      144000,       -6000,         700
4746,      144000,       -5100,         700
4747,      164000,       -6000,         700
4748,      164000,       -5100,         700
4749,      184000,       -6000,         700
4750,      184000,       -5100,         700
4751,      204000,       -6000,         700
4752,      204000,       -5100,         700
4753,      224000,       -6000,         700
4754,      224000,       -5100,         700
4755,      244000,       -6000,         700
4756,      244000,       -5100,         700
4757,      264000,       -6000,         700
4758,      264000,       -5100,         700
4759,      284000,       -6000,         700
4760,      284000,       -5100,         700
4761,      304000,       -6000,         700
4762,      304000,       -5100,         700
4763,      324000,       -6000,         700
4764,      324000,       -5100,         700
4765,      344000,       -6000,         700
4766,      344000,       -5100,         700
4767,      364000,       -6000,         700
4768,      364000,       -5100,         700
4769,      384000,       -6000,         700
4770,      384000,       -5100,         700
4771,        4000,       -3150,         700
4772,       24000,       -3150,         700
4773,       44000,       -3150,         700
4774,       64000,       -3150,         700
4775,       84000,       -3150,         700
4776,      104000,       -3150,         700
4777,      124000,       -3150,         700
4778,      144000,       -3150,         700
4779,      164000,       -3150,         700
4780,      184000,       -3150,         700
4781,      204000,       -3150,         700
4782,      224000,       -3150,         700
4783,      244000,       -3150,         700
4784,      264000,       -3150,         700
4785,      284000,       -3150,         700
4786,      304000,       -3150,         700
4787,      324000,       -3150,         700
4788,      344000,       -3150,         700
4789,      364000,       -3150,         700
4790,      384000,       -3150,         700
4791,        4000,       -1050,         700
4792,       24000,       -1050,         700
4793,       44000,       -1050,         700
4794,       64000,       -1050,         700
4795,       84000,       -1050,         700
4796,      104000,       -1050,         700
4797,      124000,       -1050,         700
4798,      144000,       -1050,         700
4799,      164000,       -1050,         700
4800,      184000,       -1050,         700
4801,      204000,       -1050,         700
4802,      224000,       -1050,         700
4803,      244000,       -1050,         700
4804,      264000,       -1050,         700
4805,      284000,       -1050,         700
4806,      304000,       -1050,         700
4807,      324000,       -1050,         700
4808,      344000,       -1050,         700
4809,      364000,       -1050,         700
4810,      384000,       -1050,         700
4811,        4000,           0,         700
4812,       24000,           0,         700
4813,       44000,           0,         700
4814,       64000,           0,         700
4815,       84000,           0,         700
4816,      104000,           0,         700
4817,      124000,           0,         700
4818,      144000,           0,         700
4819,      164000,           0,         700
4820,      184000,           0,         700
4821,      204000,           0,         700
4822,      224000,           0,         700
4823,      244000,           0,         700
4824,      264000,           0,         700
4825,      284000,           0,         700
4826,      304000,           0,         700
4827,      324000,           0,         700
4828,      344000,           0,         700
4829,      364000,           0,         700
4830,      384000,           0,         700
4831,        4000,        1050,         700
4832,       24000,        1050,         700
4833,       44000,        1050,         700
4834,       64000,        1050,         700
4835,       84000,        1050,         700
4836,      104000,        1050,         700
4837,      124000,        1050,         700
4838,      144000,        1050,         700
4839,      164000,        1050,         700
4840,      184000,        1050,         700
4841,      204000,        1050,         700
4842,      224000,        1050,         700
4843,      244000,        1050,         700
4844,      264000,        1050,         700
4845,      284000,        1050,         700
4846,      304000,        1050,         700
4847,      324000,        1050,         700
4848,      344000,        1050,         700
4849,      364000,        1050,         700
4850,      384000,        1050,         700
4851,        4000,        3150,         700
4852,       24000,        3150,         700
4853,       44000,        3150,         700
4854,       64000,        3150,         700
4855,       84000,        3150,         700
4856,      104000,        3150,         700
4857,      124000,        3150,         700
4858,      144000,        3150,         700
4859,      164000,        3150,         700
4860,      184000,        3150,         700
4861,      204000,        3150,         700
4862,      224000,        3150,         700
4863,      244000,        3150,         700
4864,      264000,        3150,         700
4865,      284000,        3150,         700
4866,      304000,        3150,         700
4867,      324000,        3150,         700
4868,      344000,        3150,         700
4869,      364000,        3150,         700
4870,      384000,        3150,         700
4871,        4000,        5100,         700
4872,       24000,        5100,         700
4873,       44000,        5100,         700
4874,       64000,        5100,         700
4875,       84000,        5100,         700
4876,      104000,        5100,         700
4877,      124000,        5100,         700
4878,      144000,        5100,         700
4879,      164000,        5100,         700
4880,      184000,        5100,         700
4881,      204000,        5100,         700
4882,      224000,        5100,         700
4883,      244000,        5100,         700
4884,      264000,        5100,         700
4885,      284000,        5100,         700
4886,      304000,        5100,         700
4887,      324000,        5100,         700
4888,      344000,        5100,         700
4889,      364000,        5100,         700
4890,      384000,        5100,         700
4891,        4000,        6000,         700
4892,       24000,        6000,         700
4893,       44000,        6000,         700
4894,       64000,        6000,         700
4895,       84000,        6000,         700
4896,      104000,        6000,         700
4897,      124000,        6000,         700
4898,      144000,        6000,         700
4899,      164000,        6000,         700
4900,      184000,        6000,         700
4901,      204000,        6000,         700
4902,      224000,        6000,         700
4903,      244000,        6000,         700
4904,      264000,        6000,         700
4905,      284000,        6000,         700
4906,      304000,        6000,         700
4907,      324000,        6000,         700
4908,      344000,        6000,         700
4909,      364000,        6000,         700
4910,      384000,        6000,         700
4911,        5000,       -6000,         700
4912,        5000,       -5100,         700
4913,       25000,       -6000,         700
4914,       25000,       -5100,         700
4915,       45000,       -6000,         700
4916,       45000,       -5100,         700
4917,       65000,       -6000,         700
4918,       65000,       -5100,         700
4919,       85000,       -6000,         700
4920,       85000,       -5100,         700
4921,      105000,       -6000,         700
4922,      105000,       -5100,         700
4923,      125000,       -6000,         700
4924,      125000,       -5100,         700
4925,      145000,       -6000,         700
4926,      145000,       -5100,         700
4927,      165000,       -6000,         700
4928,      165000,       -5100,         700
4929,      185000,       -6000,         700
4930,      185000,       -5100,         700
4931,      205000,       -6000,         700
4932,      205000,       -5100,         700
4933,      225000,       -6000,         700
4934,      225000,       -5100,         700
4935,      245000,       -6000,         700
4936,      245000,       -5100,         700
4937,      265000,       -6000,         700
4938,      265000,       -5100,         700
4939,      285000,       -6000,         700
4940,      285000,       -5100,         700
4941,      305000,       -6000,         700
4942,      305000,       -5100,         700
4943,      325000,       -6000,         700
4944,      325000,       -5100,         700
4945,      345000,       -6000,         700
4946,      345000,       -5100,         700
4947,      365000,       -6000,         700
4948,      365000,       -5100,         700
4949,      385000,       -6000,         700
4950,      385000,       -5100,         700
4951,        5000,       -3150,         700
4952,       25000,       -3150,         700
4953,       45000,       -3150,         700
4954,       65000,       -3150,         700
4955,       85000,       -3150,         700
4956,      105000,       -3150,         700
4957,      125000,       -3150,         700
4958,      145000,       -3150,         700
4959,      165000,       -3150,         700
4960,      185000,       -3150,         700
4961,      205000,       -3150,         700
4962,      225000,       -3150,         700
4963,      245000,       -3150,         700
4964,      265000,       -3150,         700
4965,      285000,       -3150,         700
4966,      305000,       -3150,         700
4967,      325000,       -3150,         700
4968,      345000,       -3150,         700
4969,      365000,       -3150,         700
4970,      385000,       -3150,         700
4971,        5000,       -1050,         700
4972,       25000,       -1050,         700
4973,       45000,       -1050,         700
4974,       65000,       -1050,         700
4975,       85000,       -1050,         700
4976,      105000,       -1050,         700
4977,      125000,       -1050,         700
4978,      145000,       -1050,         700
4979,      165000,       -1050,         700
4980,      185000,       -1050,         700
4981,      205000,       -1050,         700
4982,      225000,       -1050,         700
4983,      245000,       -1050,         700
4984,      265000,       -1050,         700
4985,      285000,       -1050,         700
4986,      305000,       -1050,         700
4987,      325000,       -1050,         700
4988,      345000,       -1050,         700
4989,      365000,       -1050,         700
4990,      385000,       -1050,         700
4991,        5000,           0,         700
4992,       25000,           0,         700
4993,       45000,           0,         700
4994,       65000,           0,         700
4995,       85000,           0,         700
4996,      105000,           0,         700
4997,      125000,           0,         700
4998,      145000,           0,         700
4999,      165000,           0,         700
5000,      185000,           0,         700
5001,      205000,           0,         700
5002,      225000,           0,         700
5003,      245000,           0,         700
5004,      265000,           0,         700
5005,      285000,           0,         700
5006,      305000,           0,         700
5007,      325000,           0,         700
5008,      345000,           0,         700
5009,      365000,           0,         700
5010,      385000,           0,         700
5011,        5000,        1050,         700
5012,       25000,        1050,         700
5013,       45000,        1050,         700
5014,       65000,        1050,         700
5015,       85000,        1050,         700
5016,      105000,        1050,         700
5017,      125000,        1050,         700
5018,      145000,        1050,         700
5019,      165000,        1050,         700
5020,      185000,        1050,         700
5021,      205000,        1050,         700
5022,      225000,        1050,         700
5023,      245000,        1050,         700
5024,      265000,        1050,         700
5025,      285000,        1050,         700
5026,      305000,        1050,         700
5027,      325000,        1050,         700
5028,      345000,        1050,         700
5029,      365000,        1050,         700
5030,      385000,        1050,         700
5031,        5000,        3150,         700
5032,       25000,        3150,         700
5033,       45000,        3150,         700
5034,       65000,        3150,         700
5035,       85000,        3150,         700
5036,      105000,        3150,         700
5037,      125000,        3150,         700
5038,      145000,        3150,         700
5039,      165000,        3150,         700
5040,      185000,        3150,         700
5041,      205000,        3150,         700
5042,      225000,        3150,         700
5043,      245000,        3150,         700
5044,      265000,        3150,         700
5045,      285000,        3150,         700
5046,      305000,        3150,         700
5047,      325000,        3150,         700
5048,      345000,        3150,         700
5049,      365000,        3150,         700
5050,      385000,        3150,         700
5051,        5000,        5100,         700
5052,       25000,        5100,         700
5053,       45000,        5100,         700
5054,       65000,        5100,         700
5055,       85000,        5100,         700
5056,      105000,        5100,         700
5057,      125000,        5100,         700
5058,      145000,        5100,         700
5059,      165000,        5100,         700
5060,      185000,        5100,         700
5061,      205000,        5100,         700
5062,      225000,        5100,         700
5063,      245000,        5100,         700
5064,      265000,        5100,         700
5065,      285000,        5100,         700
5066,      305000,        5100,         700
5067,      325000,        5100,         700
5068,      345000,        5100,         700
5069,      365000,        5100,         700
5070,      385000,        5100,         700
5071,        5000,        6000,         700
5072,       25000,        6000,         700
5073,       45000,        6000,         700
5074,       65000,        6000,         700
5075,       85000,        6000,         700
5076,      105000,        6000,         700
5077,      125000,        6000,         700
5078,      145000,        6000,         700
5079,      165000,        6000,         700
5080,      185000,        6000,         700
5081,      205000,        6000,         700
5082,      225000,        6000,         700
5083,      245000,        6000,         700
5084,      265000,        6000,         700
5085,      285000,        6000,         700
5086,      305000,        6000,         700
5087,      325000,        6000,         700
5088,      345000,        6000,         700
5089,      365000,        6000,         700
5090,      385000,        6000,         700
5091,        6000,       -6000,         700
5092,        6000,       -5100,         700
5093,       26000,       -6000,         700
5094,       26000,       -5100,         700
5095,       46000,       -6000,         700
5096,       46000,       -5100,         700
5097,       66000,       -6000,         700
5098,       66000,       -5100,         700
5099,       86000,       -6000,         700
5100,       86000,       -5100,         700
5101,      106000,       -6000,         700
5102,      106000,       -5100,         700
5103,      126000,       -6000,         700
5104,      126000,       -5100,         700
5105,      146000,       -6000,         700
5106,      146000,       -5100,         700
5107,      166000,       -6000,         700
5108,      166000,       -5100,         700
5109,      186000,       -6000,         700
5110,      186000,       -5100,         700
5111,      206000,       -6000,         700
5112,      206000,       -5100,         700
5113,      226000,       -6000,         700
5114,      226000,       -5100,         700
5115,      246000,       -6000,         700
5116,      246000,       -5100,         700
5117,      266000,       -6000,         700
5118,      266000,       -5100,         700
5119,      286000,       -6000,         700
5120,      286000,       -5100,         700
5121,      306000,       -6000,         700
5122,      306000,       -5100,         700
5123,      326000,       -6000,         700
5124,      326000,       -5100,         700
5125,      346000,       -6000,         700
5126,      346000,       -5100,         700
5127,      366000,       -6000,         700
5128,      366000,       -5100,         700
5129,      386000,       -6000,         700
5130,      386000,       -5100,         700
5131,        6000,       -3150,         700
5132,       26000,       -3150,         700
5133,       46000,       -3150,         700
5134,       66000,       -3150,         700
5135,       86000,       -3150,         700
5136,      106000,       -3150,         700
5137,      126000,       -3150,         700
5138,      146000,       -3150,         700
5139,      166000,       -3150,         700
5140,      186000,       -3150,         700
5141,      206000,       -3150,         700
5142,      226000,       -3150,         700
5143,      246000,       -3150,         700
5144,      266000,       -3150,         700
5145,      286000,       -3150,         700
5146,      306000,       -3150,         700
5147,      326000,       -3150,         700
5148,      346000,       -3150,         700
5149,      366000,       -3150,         700
5150,      386000,       -3150,         700
5151,        6000,       -1050,         700
5152,       26000,       -1050,         700
5153,       46000,       -1050,         700
5154,       66000,       -1050,         700
5155,       86000,       -1050,         700
5156,      106000,       -1050,         700
5157,      126000,       -1050,         700
5158,      146000,       -1050,         700
5159,      166000,       -1050,         700
5160,      186000,       -1050,         700
5161,      206000,       -1050,         700
5162,      226000,       -1050,         700
5163,      246000,       -1050,         700
5164,      266000,       -1050,         700
5165,      286000,       -1050,         700
5166,      306000,       -1050,         700
5167,      326000,       -1050,         700
5168,      346000,       -1050,         700
5169,      366000,       -1050,         700
5170,      386000,       -1050,         700
5171,        6000,           0,         700
5172,       26000,           0,         700
5173,       46000,           0,         700
5174,       66000,           0,         700
5175,       86000,           0,         700
5176,      106000,           0,         700
5177,      126000,           0,         700
5178,      146000,           0,         700
5179,      166000,           0,         700
5180,      186000,           0,         700
5181,      206000,           0,         700
5182,      226000,           0,         700
5183,      246000,           0,         700
5184,      266000,           0,         700
5185,      286000,           0,         700
5186,      306000,           0,         700
5187,      326000,           0,         700
5188,      346000,           0,         700
5189,      366000,           0,         700
5190,      386000,           0,         700
5191,        6000,        1050,         700
5192,       26000,        1050,         700
5193,       46000,        1050,         700
5194,       66000,        1050,         700
5195,       86000,        1050,         700
5196,      106000,        1050,         700
5197,      126000,        1050,         700
5198,      146000,        1050,         700
5199,      166000,        1050,         700
5200,      186000,        1050,         700
5201,      206000,        1050,         700
5202,      226000,        1050,         700
5203,      246000,        1050,         700
5204,      266000,        1050,         700
5205,      286000,        1050,         700
5206,      306000,        1050,         700
5207,      326000,        1050,         700
5208,      346000,        1050,         700
5209,      366000,        1050,         700
5210,      386000,        1050,         700
5211,        6000,        3150,         700
5212,       26000,        3150,         700
5213,       46000,        3150,         700
5214,       66000,        3150,         700
5215,       86000,        3150,         700
5216,      106000,        3150,         700
5217,      126000,        3150,         700
5218,      146000,        3150,         700
5219,      166000,        3150,         700
5220,      186000,        3150,         700
5221,      206000,        3150,         700
5222,      226000,        3150,         700
5223,      246000,        3150,         700
5224,      266000,        3150,         700
5225,      286000,        3150,         700
5226,      306000,        3150,         700
5227,      326000,        3150,         700
5228,      346000,        3150,         700
5229,      366000,        3150,         700
5230,      386000,        3150,         700
5231,        6000,        5100,         700
5232,       26000,        5100,         700
5233,       46000,        5100,         700
5234,       66000,        5100,         700
5235,       86000,        5100,         700
5236,      106000,        5100,         700
5237,      126000,        5100,         700
5238,      146000,        5100,         700
5239,      166000,        5100,         700
5240,      186000,        5100,         700
5241,      206000,        5100,         700
5242,      226000,        5100,         700
5243,      246000,        5100,         700
5244,      266000,        5100,         700
5245,      286000,        5100,         700
5246,      306000,        5100,         700
5247,      326000,        5100,         700
5248,      346000,        5100,         700
5249,      366000,        5100,         700
5250,      386000,        5100,         700
5251,        6000,        6000,         700
5252,       26000,        6000,         700
5253,       46000,        6000,         700
5254,       66000,        6000,         700
5255,       86000,        6000,         700
5256,      106000,        6000,         700
5257,      126000,        6000,         700
5258,      146000,        6000,         700
5259,      166000,        6000,         700
5260,      186000,        6000,         700
5261,      206000,        6000,         700
5262,      226000,        6000,         700
5263,      246000,        6000,         700
5264,      266000,        6000,         700
5265,      286000,        6000,         700
5266,      306000,        6000,         700
5267,      326000,        6000,         700
5268,      346000,        6000,         700
5269,      366000,        6000,         700
5270,      386000,        6000,         700
5271,        7000,       -6000,         700
5272,        7000,       -5100,         700
5273,       27000,       -6000,         700
5274,       27000,       -5100,         700
5275,       47000,       -6000,         700
5276,       47000,       -5100,         700
5277,       67000,       -6000,         700
5278,       67000,       -5100,         700
5279,       87000,       -6000,         700
5280,       87000,       -5100,         700
5281,      107000,       -6000,         700
5282,      107000,       -5100,         700
5283,      127000,       -6000,         700
5284,      127000,       -5100,         700
5285,      147000,       -6000,         700
5286,      147000,       -5100,         700
5287,      167000,       -6000,         700
5288,      167000,       -5100,         700
5289,      187000,       -6000,         700
5290,      187000,       -5100,         700
5291,      207000,       -6000,         700
5292,      207000,       -5100,         700
5293,      227000,       -6000,         700
5294,      227000,       -5100,         700
5295,      247000,       -6000,         700
5296,      247000,       -5100,         700
5297,      267000,       -6000,         700
5298,      267000,       -5100,         700
5299,      287000,       -6000,         700
5300,      287000,       -5100,         700
5301,      307000,       -6000,         700
5302,      307000,       -5100,         700
5303,      327000,       -6000,         700
5304,      327000,       -5100,         700
5305,      347000,       -6000,         700
5306,      347000,       -5100,         700
5307,      367000,       -6000,         700
5308,      367000,       -5100,         700
5309,      387000,       -6000,         700
5310,      387000,       -5100,         700
5311,        7000,       -3150,         700
5312,       27000,       -3150,         700
5313,       47000,       -3150,         700
5314,       67000,       -3150,         700
5315,       87000,       -3150,         700
5316,      107000,       -3150,         700
5317,      127000,       -3150,         700
5318,      147000,       -3150,         700
5319,      167000,       -3150,         700
5320,      187000,       -3150,         700
5321,      207000,       -3150,         700
5322,      227000,       -3150,         700
5323,      247000,       -3150,         700
5324,      267000,       -3150,         700
5325,      287000,       -3150,         700
5326,      307000,       -3150,         700
5327,      327000,       -3150,         700
5328,      347000,       -3150,         700
5329,      367000,       -3150,         700
5330,      387000,       -3150,         700
5331,        7000,       -1050,         700
5332,       27000,       -1050,         700
5333,       47000,       -1050,         700
5334,       67000,       -1050,         700
5335,       87000,       -1050,         700
5336,      107000,       -1050,         700
5337,      127000,       -1050,         700
5338,      147000,       -1050,         700
5339,      167000,       -1050,         700
5340,      187000,       -1050,         700
5341,      207000,       -1050,         700
5342,      227000,       -1050,         700
5343,      247000,       -1050,         700
5344,      267000,       -1050,         700
5345,      287000,       -1050,         700
5346,      307000,       -1050,         700
5347,      327000,       -1050,         700
5348,      347000,       -1050,         700
5349,      367000,       -1050,         700
5350,      387000,       -1050,         700
5351,        7000,           0,         700
5352,       27000,           0,         700
5353,       47000,           0,         700
5354,       67000,           0,         700
5355,       87000,           0,         700
5356,      107000,           0,         700
5357,      127000,           0,         700
5358,      147000,           0,         700
5359,      167000,           0,         700
5360,      187000,           0,         700
5361,      207000,           0,         700
5362,      227000,           0,         700
5363,      247000,           0,         700
5364,      267000,           0,         700
5365,      287000,           0,         700
5366,      307000,           0,         700
5367,      327000,           0,         700
5368,      347000,           0,         700
5369,      367000,           0,         700
5370,      387000,           0,         700
5371,        7000,        1050,         700
5372,       27000,        1050,         700
5373,       47000,        1050,         700
5374,       67000,        1050,         700
5375,       87000,        1050,         700
5376,      107000,        1050,         700
5377,      127000,        1050,         700
5378,      147000,        1050,         700
5379,      167000,        1050,         700
5380,      187000,        1050,         700
5381,      207000,        1050,         700
5382,      227000,        1050,         700
5383,      247000,        1050,         700
5384,      267000,        1050,         700
5385,      287000,        1050,         700
5386,      307000,        1050,         700
5387,      327000,        1050,         700
5388,      347000,        1050,         700
5389,      367000,        1050,         700
5390,      387000,        1050,         700
5391,        7000,        3150,         700
5392,       27000,        3150,         700
5393,       47000,        3150,         700
5394,       67000,        3150,         700
5395,       87000,        3150,         700
5396,      107000,        3150,         700
5397,      127000,        3150,         700
5398,      147000,        3150,         700
5399,      167000,        3150,         700
5400,      187000,        3150,         700
5401,      207000,        3150,         700
5402,      227000,        3150,         700
5403,      247000,        3150,         700
5404,      267000,        3150,         700
5405,      287000,        3150,         700
5406,      307000,        3150,         700
5407,      327000,        3150,         700
5408,      347000,        3150,         700
5409,      367000,        3150,         700
5410,      387000,        3150,         700
5411,        7000,        5100,         700
5412,       27000,        5100,         700
5413,       47000,        5100,         700
5414,       67000,        5100,         700
5415,       87000,        5100,         700
5416,      107000,        5100,         700
5417,      127000,        5100,         700
5418,      147000,        5100,         700
5419,      167000,        5100,         700
5420,      187000,        5100,         700
5421,      207000,        5100,         700
5422,      227000,        5100,         700
5423,      247000,        5100,         700
5424,      267000,        5100,         700
5425,      287000,        5100,         700
5426,      307000,        5100,         700
5427,      327000,        5100,         700
5428,      347000,        5100,         700
5429,      367000,        5100,         700
5430,      387000,        5100,         700
5431,        7000,        6000,         700
5432,       27000,        6000,         700
5433,       47000,        6000,         700
5434,       67000,        6000,         700
5435,       87000,        6000,         700
5436,      107000,        6000,         700
5437,      127000,        6000,         700
5438,      147000,        6000,         700
5439,      167000,        6000,         700
5440,      187000,        6000,         700
5441,      207000,        6000,         700
5442,      227000,        6000,         700
5443,      247000,        6000,         700
5444,      267000,        6000,         700
5445,      287000,        6000,         700
5446,      307000,        6000,         700
5447,      327000,        6000,         700
5448,      347000,        6000,         700
5449,      367000,        6000,         700
5450,      387000,        6000,         700
5451,        8000,       -6000,         700
5452,        8000,       -5100,         700
5453,       28000,       -6000,         700
5454,       28000,       -5100,         700
5455,       48000,       -6000,         700
5456,       48000,       -5100,         700
5457,       68000,       -6000,         700
5458,       68000,       -5100,         700
5459,       88000,       -6000,         700
5460,       88000,       -5100,         700
5461,      108000,       -6000,         700
5462,      108000,       -5100,         700
5463,      128000,       -6000,         700
5464,      128000,       -5100,         700
5465,      148000,       -6000,         700
5466,      148000,       -5100,         700
5467,      168000,       -6000,         700
5468,      168000,       -5100,         700
5469,      188000,       -6000,         700
5470,      188000,       -5100,         700
5471,      208000,       -6000,         700
5472,      208000,       -5100,         700
5473,      228000,       -6000,         700
5474,      228000,       -5100,         700
5475,      248000,       -6000,         700
5476,      248000,       -5100,         700
5477,      268000,       -6000,         700
5478,      268000,       -5100,         700
5479,      288000,       -6000,         700
5480,      288000,       -5100,         700
5481,      308000,       -6000,         700
5482,      308000,       -5100,         700
5483,      328000,       -6000,         700
5484,      328000,       -5100,         700
5485,      348000,       -6000,         700
5486,      348000,       -5100,         700
5487,      368000,       -6000,         700
5488,      368000,       -5100,         700
5489,      388000,       -6000,         700
5490,      388000,       -5100,         700
5491,        8000,       -3150,         700
5492,       28000,       -3150,         700
5493,       48000,       -3150,         700
5494,       68000,       -3150,         700
5495,       88000,       -3150,         700
5496,      108000,       -3150,         700
5497,      128000,       -3150,         700
5498,      148000,       -3150,         700
5499,      168000,       -3150,         700
5500,      188000,       -3150,         700
5501,      208000,       -3150,         700
5502,      228000,       -3150,         700
5503,      248000,       -3150,         700
5504,      268000,       -3150,         700
5505,      288000,       -3150,         700
5506,      308000,       -3150,         700
5507,      328000,       -3150,         700
5508,      348000,       -3150,         700
5509,      368000,       -3150,         700
5510,      388000,       -3150,         700
5511,        8000,       -1050,         700
5512,       28000,       -1050,         700
5513,       48000,       -1050,         700
5514,       68000,       -1050,         700
5515,       88000,       -1050,         700
5516,      108000,       -1050,         700
5517,      128000,       -1050,         700
5518,      148000,       -1050,         700
5519,      168000,       -1050,         700
5520,      188000,       -1050,         700
5521,      208000,       -1050,         700
5522,      228000,       -1050,         700
5523,      248000,       -1050,         700
5524,      268000,       -1050,         700
5525,      288000,       -1050,         700
5526,      308000,       -1050,         700
5527,      328000,       -1050,         700
5528,      348000,       -1050,         700
5529,      368000,       -1050,         700
5530,      388000,       -1050,         700
5531,        8000,           0,         700
5532,       28000,           0,         700
5533,       48000,           0,         700
5534,       68000,           0,         700
5535,       88000,           0,         700
5536,      108000,           0,         700
5537,      128000,           0,         700
5538,      148000,           0,         700
5539,      168000,           0,         700
5540,      188000,           0,         700
5541,      208000,           0,         700
5542,      228000,           0,         700
5543,      248000,           0,         700
5544,      268000,           0,         700
5545,      288000,           0,         700
5546,      308000,           0,         700
5547,      328000,           0,         700
5548,      348000,           0,         700
5549,      368000,           0,         700
5550,      388000,           0,         700
5551,        8000,        1050,         700
5552,       28000,        1050,         700
5553,       48000,        1050,         700
5554,       68000,        1050,         700
5555,       88000,        1050,         700
5556,      108000,        1050,         700
5557,      128000,        1050,         700
5558,      148000,        1050,         700
5559,      168000,        1050,         700
5560,      188000,        1050,         700
5561,      208000,        1050,         700
5562,      228000,        1050,         700
5563,      248000,        1050,         700
5564,      268000,        1050,         700
5565,      288000,        1050,         700
5566,      308000,        1050,         700
5567,      328000,        1050,         700
5568,      348000,        1050,         700
5569,      368000,        1050,         700
5570,      388000,        1050,         700
5571,        8000,        3150,         700
5572,       28000,        3150,         700
5573,       48000,        3150,         700
5574,       68000,        3150,         700
5575,       88000,        3150,         700
5576,      108000,        3150,         700
5577,      128000,        3150,         700
5578,      148000,        3150,         700
5579,      168000,        3150,         700
5580,      188000,        3150,         700
5581,      208000,        3150,         700
5582,      228000,        3150,         700
5583,      248000,        3150,         700
5584,      268000,        3150,         700
5585,      288000,        3150,         700
5586,      308000,        3150,         700
5587,      328000,        3150,         700
5588,      348000,        3150,         700
5589,      368000,        3150,         700
5590,      388000,        3150,         700
5591,        8000,        5100,         700
5592,       28000,        5100,         700
5593,       48000,        5100,         700
5594,       68000,        5100,         700
5595,       88000,        5100,         700
5596,      108000,        5100,         700
5597,      128000,        5100,         700
5598,      148000,        5100,         700
5599,      168000,        5100,         700
5600,      188000,        5100,         700
5601,      208000,        5100,         700
5602,      228000,        5100,         700
5603,      248000,        5100,         700
5604,      268000,        5100,         700
5605,      288000,        5100,         700
5606,      308000,        5100,         700
5607,      328000,        5100,         700
5608,      348000,        5100,         700
5609,      368000,        5100,         700
5610,      388000,        5100,         700
5611,        8000,        6000,         700
5612,       28000,        6000,         700
5613,       48000,        6000,         700
5614,       68000,        6000,         700
5615,       88000,        6000,         700
5616,      108000,        6000,         700
5617,      128000,        6000,         700
5618,      148000,        6000,         700
5619,      168000,        6000,         700
5620,      188000,        6000,         700
5621,      208000,        6000,         700
5622,      228000,        6000,         700
5623,      248000,        6000,         700
5624,      268000,        6000,         700
5625,      288000,        6000,         700
5626,      308000,        6000,         700
5627,      328000,        6000,         700
5628,      348000,        6000,         700
5629,      368000,        6000,         700
5630,      388000,        6000,         700
5631,        9000,       -6000,         700
5632,        9000,       -5100,         700
5633,       29000,       -6000,         700
5634,       29000,       -5100,         700
5635,       49000,       -6000,         700
5636,       49000,       -5100,         700
5637,       69000,       -6000,         700
5638,       69000,       -5100,         700
5639,       89000,       -6000,         700
5640,       89000,       -5100,         700
5641,      109000,       -6000,         700
5642,      109000,       -5100,         700
5643,      129000,       -6000,         700
5644,      129000,       -5100,         700
5645,      149000,       -6000,         700
5646,      149000,       -5100,         700
5647,      169000,       -6000,         700
5648,      169000,       -5100,         700
5649,      189000,       -6000,         700
5650,      189000,       -5100,         700
5651,      209000,       -6000,         700
5652,      209000,       -5100,         700
5653,      229000,       -6000,         700
5654,      229000,       -5100,         700
5655,      249000,       -6000,         700
5656,      249000,       -5100,         700
5657,      269000,       -6000,         700
5658,      269000,       -5100,         700
5659,      289000,       -6000,         700
5660,      289000,       -5100,         700
5661,      309000,       -6000,         700
5662,      309000,       -5100,         700
5663,      329000,       -6000,         700
5664,      329000,       -5100,         700
5665,      349000,       -6000,         700
5666,      349000,       -5100,         700
5667,      369000,       -6000,         700
5668,      369000,       -5100,         700
5669,      389000,       -6000,         700
5670,      389000,       -5100,         700
5671,        9000,       -3150,         700
5672,       29000,       -3150,         700
5673,       49000,       -3150,         700
5674,       69000,       -3150,         700
5675,       89000,       -3150,         700
5676,      109000,       -3150,         700
5677,      129000,       -3150,         700
5678,      149000,       -3150,         700
5679,      169000,       -3150,         700
5680,      189000,       -3150,         700
5681,      209000,       -3150,         700
5682,      229000,       -3150,         700
5683,      249000,       -3150,         700
5684,      269000,       -3150,         700
5685,      289000,       -3150,         700
5686,      309000,       -3150,         700
5687,      329000,       -3150,         700
5688,      349000,       -3150,         700
5689,      369000,       -3150,         700
5690,      389000,       -3150,         700
5691,        9000,       -1050,         700
5692,       29000,       -1050,         700
5693,       49000,       -1050,         700
5694,       69000,       -1050,         700
5695,       89000,       -1050,         700
5696,      109000,       -1050,         700
5697,      129000,       -1050,         700
5698,      149000,       -1050,         700
5699,      169000,       -1050,         700
5700,      189000,       -1050,         700
5701,      209000,       -1050,         700
5702,      229000,       -1050,         700
5703,      249000,       -1050,         700
5704,      269000,       -1050,         700
5705,      289000,       -1050,         700
5706,      309000,       -1050,         700
5707,      329000,       -1050,         700
5708,      349000,       -1050,         700
5709,      369000,       -1050,         700
5710,      389000,       -1050,         700
5711,        9000,           0,         700
5712,       29000,           0,         700
5713,       49000,           0,         700
5714,       69000,           0,         700
5715,       89000,           0,         700
5716,      109000,           0,         700
5717,      129000,           0,         700
5718,      149000,           0,         700
5719,      169000,           0,         700
5720,      189000,           0,         700
5721,      209000,           0,         700
5722,      229000,           0,         700
5723,      249000,           0,         700
5724,      269000,           0,         700
5725,      289000,           0,         700
5726,      309000,           0,         700
5727,      329000,           0,         700
5728,      349000,           0,         700
5729,      369000,           0,         700
5730,      389000,           0,         700
5731,        9000,        1050,         700
5732,       29000,        1050,         700
5733,       49000,        1050,         700
5734,       69000,        1050,         700
5735,       89000,        1050,         700
5736,      109000,        1050,         700
5737,      129000,        1050,         700
5738,      149000,        1050,         700
5739,      169000,        1050,         700
5740,      189000,        1050,         700
5741,      209000,        1050,         700
5742,      229000,        1050,         700
5743,      249000,        1050,         700
5744,      269000,        1050,         700
5745,      289000,        1050,         700
5746,      309000,        1050,         700
5747,      329000,        1050,         700
5748,      349000,        1050,         700
5749,      369000,        1050,         700
5750,      389000,        1050,         700
5751,        9000,        3150,         700
5752,       29000,        3150,         700
5753,       49000,        3150,         700
5754,       69000,        3150,         700
5755,       89000,        3150,         700
5756,      109000,        3150,         700
5757,      129000,        3150,         700
5758,      149000,        3150,         700
5759,      169000,        3150,         700
5760,      189000,        3150,         700
5761,      209000,        3150,         700
5762,      229000,        3150,         700
5763,      249000,        3150,         700
5764,      269000,        3150,         700
5765,      289000,        3150,         700
5766,      309000,        3150,         700
5767,      329000,        3150,         700
5768,      349000,        3150,         700
5769,      369000,        3150,         700
5770,      389000,        3150,         700
5771,        9000,        5100,         700
5772,       29000,        5100,         700
5773,       49000,        5100,         700
5774,       69000,        5100,         700
5775,       89000,        5100,         700
5776,      109000,        5100,         700
5777,      129000,        5100,         700
5778,      149000,        5100,         700
5779,      169000,        5100,         700
5780,      189000,        5100,         700
5781,      209000,        5100,         700
5782,      229000,        5100,         700
5783,      249000,        5100,         700
5784,      269000,        5100,         700
5785,      289000,        5100,         700
5786,      309000,        5100,         700
5787,      329000,        5100,         700
5788,      349000,        5100,         700
5789,      369000,        5100,         700
5790,      389000,        5100,         700
5791,        9000,        6000,         700
5792,       29000,        6000,         700
5793,       49000,        6000,         700
5794,       69000,        6000,         700
5795,       89000,        6000,         700
5796,      109000,        6000,         700
5797,      129000,        6000,         700
5798,      149000,        6000,         700
5799,      169000,        6000,         700
5800,      189000,        6000,         700
5801,      209000,        6000,         700
5802,      229000,        6000,         700
5803,      249000,        6000,         700
5804,      269000,        6000,         700
5805,      289000,        6000,         700
5806,      309000,        6000,         700
5807,      329000,        6000,         700
5808,      349000,        6000,         700
5809,      369000,        6000,         700
5810,      389000,        6000,         700
5811,       10000,       -6000,         700
5812,       10000,       -5100,         700
5813,       30000,       -6000,         700
5814,       30000,       -5100,         700
5815,       50000,       -6000,         700
5816,       50000,       -5100,         700
5817,       70000,       -6000,         700
5818,       70000,       -5100,         700
5819,       90000,       -6000,         700
5820,       90000,       -5100,         700
5821,      110000,       -6000,         700
5822,      110000,       -5100,         700
5823,      130000,       -6000,         700
5824,      130000,       -5100,         700
5825,      150000,       -6000,         700
5826,      150000,       -5100,         700
5827,      170000,       -6000,         700
5828,      170000,       -5100,         700
5829,      190000,       -6000,         700
5830,      190000,       -5100,         700
5831,      210000,       -6000,         700
5832,      210000,       -5100,         700
5833,      230000,       -6000,         700
5834,      230000,       -5100,         700
5835,      250000,       -6000,         700
5836,      250000,       -5100,         700
5837,      270000,       -6000,         700
5838,      270000,       -5100,         700
5839,      290000,       -6000,         700
5840,      290000,       -5100,         700
5841,      310000,       -6000,         700
5842,      310000,       -5100,         700
5843,      330000,       -6000,         700
5844,      330000,       -5100,         700
5845,      350000,       -6000,         700
5846,      350000,       -5100,         700
5847,      370000,       -6000,         700
5848,      370000,       -5100,         700
5849,      390000,       -6000,         700
5850,      390000,       -5100,         700
5851,       10000,       -3150,         700
5852,       30000,       -3150,         700
5853,       50000,       -3150,         700
5854,       70000,       -3150,         700
5855,       90000,       -3150,         700
5856,      110000,       -3150,         700
5857,      130000,       -3150,         700
5858,      150000,       -3150,         700
5859,      170000,       -3150,         700
5860,      190000,       -3150,         700
5861,      210000,       -3150,         700
5862,      230000,       -3150,         700
5863,      250000,       -3150,         700
5864,      270000,       -3150,         700
5865,      290000,       -3150,         700
5866,      310000,       -3150,         700
5867,      330000,       -3150,         700
5868,      350000,       -3150,         700
5869,      370000,       -3150,         700
5870,      390000,       -3150,         700
5871,       10000,       -1050,         700
5872,       30000,       -1050,         700
5873,       50000,       -1050,         700
5874,       70000,       -1050,         700
5875,       90000,       -1050,         700
5876,      110000,       -1050,         700
5877,      130000,       -1050,         700
5878,      150000,       -1050,         700
5879,      170000,       -1050,         700
5880,      190000,       -1050,         700
5881,      210000,       -1050,         700
5882,      230000,       -1050,         700
5883,      250000,       -1050,         700
5884,      270000,       -1050,         700
5885,      290000,       -1050,         700
5886,      310000,       -1050,         700
5887,      330000,       -1050,         700
5888,      350000,       -1050,         700
5889,      370000,       -1050,         700
5890,      390000,       -1050,         700
5891,       10000,           0,         700
5892,       30000,           0,         700
5893,       50000,           0,         700
5894,       70000,           0,         700
5895,       90000,           0,         700
5896,      110000,           0,         700
5897,      130000,           0,         700
5898,      150000,           0,         700
5899,      170000,           0,         700
5900,      190000,           0,         700
5901,      210000,           0,         700
5902,      230000,           0,         700
5903,      250000,           0,         700
5904,      270000,           0,         700
5905,      290000,           0,         700
5906,      310000,           0,         700
5907,      330000,           0,         700
5908,      350000,           0,         700
5909,      370000,           0,         700
5910,      390000,           0,         700
5911,       10000,        1050,         700
5912,       30000,        1050,         700
5913,       50000,        1050,         700
5914,       70000,        1050,         700
5915,       90000,        1050,         700
5916,      110000,        1050,         700
5917,      130000,        1050,         700
5918,      150000,        1050,         700
5919,      170000,        1050,         700
5920,      190000,        1050,         700
5921,      210000,        1050,         700
5922,      230000,        1050,         700
5923,      250000,        1050,         700
5924,      270000,        1050,         700
5925,      290000,        1050,         700
5926,      310000,        1050,         700
5927,      330000,        1050,         700
5928,      350000,        1050,         700
5929,      370000,        1050,         700
5930,      390000,        1050,         700
5931,       10000,        3150,         700
5932,       30000,        3150,         700
5933,       50000,        3150,         700
5934,       70000,        3150,         700
5935,       90000,        3150,         700
5936,      110000,        3150,         700
5937,      130000,        3150,         700
5938,      150000,        3150,         700
5939,      170000,        3150,         700
5940,      190000,        3150,         700
5941,      210000,        3150,         700
5942,      230000,        3150,         700
5943,      250000,        3150,         700
5944,      270000,        3150,         700
5945,      290000,        3150,         700
5946,      310000,        3150,         700
5947,      330000,        3150,         700
5948,      350000,        3150,         700
5949,      370000,        3150,         700
5950,      390000,        3150,         700
5951,       10000,        5100,         700
5952,       30000,        5100,         700
5953,       50000,        5100,         700
5954,       70000,        5100,         700
5955,       90000,        5100,         700
5956,      110000,        5100,         700
5957,      130000,        5100,         700
5958,      150000,        5100,         700
5959,      170000,        5100,         700
5960,      190000,        5100,         700
5961,      210000,        5100,         700
5962,      230000,        5100,         700
5963,      250000,        5100,         700
5964,      270000,        5100,         700
5965,      290000,        5100,         700
5966,      310000,        5100,         700
5967,      330000,        5100,         700
5968,      350000,        5100,         700
5969,      370000,        5100,         700
5970,      390000,        5100,         700
5971,       10000,        6000,         700
5972,       30000,        6000,         700
5973,       50000,        6000,         700
5974,       70000,        6000,         700
5975,       90000,        6000,         700
5976,      110000,        6000,         700
5977,      130000,        6000,         700
5978,      150000,        6000,         700
5979,      170000,        6000,         700
5980,      190000,        6000,         700
5981,      210000,        6000,         700
5982,      230000,        6000,         700
5983,      250000,        6000,         700
5984,      270000,        6000,         700
5985,      290000,        6000,         700
5986,      310000,        6000,         700
5987,      330000,        6000,         700
5988,      350000,        6000,         700
5989,      370000,        6000,         700
5990,      390000,        6000,         700
5991,       11000,       -6000,         700
5992,       11000,       -5100,         700
5993,       31000,       -6000,         700
5994,       31000,       -5100,         700
5995,       51000,       -6000,         700
5996,       51000,       -5100,         700
5997,       71000,       -6000,         700
5998,       71000,       -5100,         700
5999,       91000,       -6000,         700
6000,       91000,       -5100,         700
6001,      111000,       -6000,         700
6002,      111000,       -5100,         700
6003,      131000,       -6000,         700
6004,      131000,       -5100,         700
6005,      151000,       -6000,         700
6006,      151000,       -5100,         700
6007,      171000,       -6000,         700
6008,      171000,       -5100,         700
6009,      191000,       -6000,         700
6010,      191000,       -5100,         700
6011,      211000,       -6000,         700
6012,      211000,       -5100,         700
6013,      231000,       -6000,         700
6014,      231000,       -5100,         700
6015,      251000,       -6000,         700
6016,      251000,       -5100,         700
6017,      271000,       -6000,         700
6018,      271000,       -5100,         700
6019,      291000,       -6000,         700
6020,      291000,       -5100,         700
6021,      311000,       -6000,         700
6022,      311000,       -5100,         700
6023,      331000,       -6000,         700
6024,      331000,       -5100,         700
6025,      351000,       -6000,         700
6026,      351000,       -5100,         700
6027,      371000,       -6000,         700
6028,      371000,       -5100,         700
6029,      391000,       -6000,         700
6030,      391000,       -5100,         700
6031,       11000,       -3150,         700
6032,       31000,       -3150,         700
6033,       51000,       -3150,         700
6034,       71000,       -3150,         700
6035,       91000,       -3150,         700
6036,      111000,       -3150,         700
6037,      131000,       -3150,         700
6038,      151000,       -3150,         700
6039,      171000,       -3150,         700
6040,      191000,       -3150,         700
6041,      211000,       -3150,         700
6042,      231000,       -3150,         700
6043,      251000,       -3150,         700
6044,      271000,       -3150,         700
6045,      291000,       -3150,         700
6046,      311000,       -3150,         700
6047,      331000,       -3150,         700
6048,      351000,       -3150,         700
6049,      371000,       -3150,         700
6050,      391000,       -3150,         700
6051,       11000,       -1050,         700
6052,       31000,       -1050,         700
6053,       51000,       -1050,         700
6054,       71000,       -1050,         700
6055,       91000,       -1050,         700
6056,      111000,       -1050,         700
6057,      131000,       -1050,         700
6058,      151000,       -1050,         700
6059,      171000,       -1050,         700
6060,      191000,       -1050,         700
6061,      211000,       -1050,         700
6062,      231000,       -1050,         700
6063,      251000,       -1050,         700
6064,      271000,       -1050,         700
6065,      291000,       -1050,         700
6066,      311000,       -1050,         700
6067,      331000,       -1050,         700
6068,      351000,       -1050,         700
6069,      371000,       -1050,         700
6070,      391000,       -1050,         700
6071,       11000,           0,         700
6072,       31000,           0,         700
6073,       51000,           0,         700
6074,       71000,           0,         700
6075,       91000,           0,         700
6076,      111000,           0,         700
6077,      131000,           0,         700
6078,      151000,           0,         700
6079,      171000,           0,         700
6080,      191000,           0,         700
6081,      211000,           0,         700
6082,      231000,           0,         700
6083,      251000,           0,         700
6084,      271000,           0,         700
6085,      291000,           0,         700
6086,      311000,           0,         700
6087,      331000,           0,         700
6088,      351000,           0,         700
6089,      371000,           0,         700
6090,      391000,           0,         700
6091,       11000,        1050,         700
6092,       31000,        1050,         700
6093,       51000,        1050,         700
6094,       71000,        1050,         700
6095,       91000,        1050,         700
6096,      111000,        1050,         700
6097,      131000,        1050,         700
6098,      151000,        1050,         700
6099,      171000,        1050,         700
6100,      191000,        1050,         700
6101,      211000,        1050,         700
6102,      231000,        1050,         700
6103,      251000,        1050,         700
6104,      271000,        1050,         700
6105,      291000,        1050,         700
6106,      311000,        1050,         700
6107,      331000,        1050,         700
6108,      351000,        1050,         700
6109,      371000,        1050,         700
6110,      391000,        1050,         700
6111,       11000,        3150,         700
6112,       31000,        3150,         700
6113,       51000,        3150,         700
6114,       71000,        3150,         700
6115,       91000,        3150,         700
6116,      111000,        3150,         700
6117,      131000,        3150,         700
6118,      151000,        3150,         700
6119,      171000,        3150,         700
6120,      191000,        3150,         700
6121,      211000,        3150,         700
6122,      231000,        3150,         700
6123,      251000,        3150,         700
6124,      271000,        3150,         700
6125,      291000,        3150,         700
6126,      311000,        3150,         700
6127,      331000,        3150,         700
6128,      351000,        3150,         700
6129,      371000,        3150,         700
6130,      391000,        3150,         700
6131,       11000,        5100,         700
6132,       31000,        5100,         700
6133,       51000,        5100,         700
6134,       71000,        5100,         700
6135,       91000,        5100,         700
6136,      111000,        5100,         700
6137,      131000,        5100,         700
6138,      151000,        5100,         700
6139,      171000,        5100,         700
6140,      191000,        5100,         700
6141,      211000,        5100,         700
6142,      231000,        5100,         700
6143,      251000,        5100,         700
6144,      271000,        5100,         700
6145,      291000,        5100,         700
6146,      311000,        5100,         700
6147,      331000,        5100,         700
6148,      351000,        5100,         700
6149,      371000,        5100,         700
6150,      391000,        5100,         700
6151,       11000,        6000,         700
6152,       31000,        6000,         700
6153,       51000,        6000,         700
6154,       71000,        6000,         700
6155,       91000,        6000,         700
6156,      111000,        6000,         700
6157,      131000,        6000,         700
6158,      151000,        6000,         700
6159,      171000,        6000,         700
6160,      191000,        6000,         700
6161,      211000,        6000,         700
6162,      231000,        6000,         700
6163,      251000,        6000,         700
6164,      271000,        6000,         700
6165,      291000,        6000,         700
6166,      311000,        6000,         700
6167,      331000,        6000,         700
6168,      351000,        6000,         700
6169,      371000,        6000,         700
6170,      391000,        6000,         700
6171,       12000,       -6000,         700
6172,       12000,       -5100,         700
6173,       32000,       -6000,         700
6174,       32000,       -5100,         700
6175,       52000,       -6000,         700
6176,       52000,       -5100,         700
6177,       72000,       -6000,         700
6178,       72000,       -5100,         700
6179,       92000,       -6000,         700
6180,       92000,       -5100,         700
6181,      112000,       -6000,         700
6182,      112000,       -5100,         700
6183,      132000,       -6000,         700
6184,      132000,       -5100,         700
6185,      152000,       -6000,         700
6186,      152000,       -5100,         700
6187,      172000,       -6000,         700
6188,      172000,       -5100,         700
6189,      192000,       -6000,         700
6190,      192000,       -5100,         700
6191,      212000,       -6000,         700
6192,      212000,       -5100,         700
6193,      232000,       -6000,         700
6194,      232000,       -5100,         700
6195,      252000,       -6000,         700
6196,      252000,       -5100,         700
6197,      272000,       -6000,         700
6198,      272000,       -5100,         700
6199,      292000,       -6000,         700
6200,      292000,       -5100,         700
6201,      312000,       -6000,         700
6202,      312000,       -5100,         700
6203,      332000,       -6000,         700
6204,      332000,       -5100,         700
6205,      352000,       -6000,         700
6206,      352000,       -5100,         700
6207,      372000,       -6000,         700
6208,      372000,       -5100,         700
6209,      392000,       -6000,         700
6210,      392000,       -5100,         700
6211,       12000,       -3150,         700
6212,       32000,       -3150,         700
6213,       52000,       -3150,         700
6214,       72000,       -3150,         700
6215,       92000,       -3150,         700
6216,      112000,       -3150,         700
6217,      132000,       -3150,         700
6218,      152000,       -3150,         700
6219,      172000,       -3150,         700
6220,      192000,       -3150,         700
6221,      212000,       -3150,         700
6222,      232000,       -3150,         700
6223,      252000,       -3150,         700
6224,      272000,       -3150,         700
6225,      292000,       -3150,         700
6226,      312000,       -3150,         700
6227,      332000,       -3150,         700
6228,      352000,       -3150,         700
6229,      372000,       -3150,         700
6230,      392000,       -3150,         700
6231,       12000,       -1050,         700
6232,       32000,       -1050,         700
6233,       52000,       -1050,         700
6234,       72000,       -1050,         700
6235,       92000,       -1050,         700
6236,      112000,       -1050,         700
6237,      132000,       -1050,         700
6238,      152000,       -1050,         700
6239,      172000,       -1050,         700
6240,      192000,       -1050,         700
6241,      212000,       -1050,         700
6242,      232000,       -1050,         700
6243,      252000,       -1050,         700
6244,      272000,       -1050,         700
6245,      292000,       -1050,         700
6246,      312000,       -1050,         700
6247,      332000,       -1050,         700
6248,      352000,       -1050,         700
6249,      372000,       -1050,         700
6250,      392000,       -1050,         700
6251,       12000,           0,         700
6252,       32000,           0,         700
6253,       52000,           0,         700
6254,       72000,           0,         700
6255,       92000,           0,         700
6256,      112000,           0,         700
6257,      132000,           0,         700
6258,      152000,           0,         700
6259,      172000,           0,         700
6260,      192000,           0,         700
6261,      212000,           0,         700
6262,      232000,           0,         700
6263,      252000,           0,         700
6264,      272000,           0,         700
6265,      292000,           0,         700
6266,      312000,           0,         700
6267,      332000,           0,         700
6268,      352000,           0,         700
6269,      372000,           0,         700
6270,      392000,           0,         700
6271,       12000,        1050,         700
6272,       32000,        1050,         700
6273,       52000,        1050,         700
6274,       72000,        1050,         700
6275,       92000,        1050,         700
6276,      112000,        1050,         700
6277,      132000,        1050,         700
6278,      152000,        1050,         700
6279,      172000,        1050,         700
6280,      192000,        1050,         700
6281,      212000,        1050,         700
6282,      232000,        1050,         700
6283,      252000,        1050,         700
6284,      272000,        1050,         700
6285,      292000,        1050,         700
6286,      312000,        1050,         700
6287,      332000,        1050,         700
6288,      352000,        1050,         700
6289,      372000,        1050,         700
6290,      392000,        1050,         700
6291,       12000,        3150,         700
6292,       32000,        3150,         700
6293,       52000,        3150,         700
6294,       72000,        3150,         700
6295,       92000,        3150,         700
6296,      112000,        3150,         700
6297,      132000,        3150,         700
6298,      152000,        3150,         700
6299,      172000,        3150,         700
6300,      192000,        3150,         700
6301,      212000,        3150,         700
6302,      232000,        3150,         700
6303,      252000,        3150,         700
6304,      272000,        3150,         700
6305,      292000,        3150,         700
6306,      312000,        3150,         700
6307,      332000,        3150,         700
6308,      352000,        3150,         700
6309,      372000,        3150,         700
6310,      392000,        3150,         700
6311,       12000,        5100,         700
6312,       32000,        5100,         700
6313,       52000,        5100,         700
6314,       72000,        5100,         700
6315,       92000,        5100,         700
6316,      112000,        5100,         700
6317,      132000,        5100,         700
6318,      152000,        5100,         700
6319,      172000,        5100,         700
6320,      192000,        5100,         700
6321,      212000,        5100,         700
6322,      232000,        5100,         700
6323,      252000,        5100,         700
6324,      272000,        5100,         700
6325,      292000,        5100,         700
6326,      312000,        5100,         700
6327,      332000,        5100,         700
6328,      352000,        5100,         700
6329,      372000,        5100,         700
6330,      392000,        5100,         700
6331,       12000,        6000,         700
6332,       32000,        6000,         700
6333,       52000,        6000,         700
6334,       72000,        6000,         700
6335,       92000,        6000,         700
6336,      112000,        6000,         700
6337,      132000,        6000,         700
6338,      152000,        6000,         700
6339,      172000,        6000,         700
6340,      192000,        6000,         700
6341,      212000,        6000,         700
6342,      232000,        6000,         700
6343,      252000,        6000,         700
6344,      272000,        6000,         700
6345,      292000,        6000,         700
6346,      312000,        6000,         700
6347,      332000,        6000,         700
6348,      352000,        6000,         700
6349,      372000,        6000,         700
6350,      392000,        6000,         700
6351,       13000,       -6000,         700
6352,       13000,       -5100,         700
6353,       33000,       -6000,         700
6354,       33000,       -5100,         700
6355,       53000,       -6000,         700
6356,       53000,       -5100,         700
6357,       73000,       -6000,         700
6358,       73000,       -5100,         700
6359,       93000,       -6000,         700
6360,       93000,       -5100,         700
6361,      113000,       -6000,         700
6362,      113000,       -5100,         700
6363,      133000,       -6000,         700
6364,      133000,       -5100,         700
6365,      153000,       -6000,         700
6366,      153000,       -5100,         700
6367,      173000,       -6000,         700
6368,      173000,       -5100,         700
6369,      193000,       -6000,         700
6370,      193000,       -5100,         700
6371,      213000,       -6000,         700
6372,      213000,       -5100,         700
6373,      233000,       -6000,         700
6374,      233000,       -5100,         700
6375,      253000,       -6000,         700
6376,      253000,       -5100,         700
6377,      273000,       -6000,         700
6378,      273000,       -5100,         700
6379,      293000,       -6000,         700
6380,      293000,       -5100,         700
6381,      313000,       -6000,         700
6382,      313000,       -5100,         700
6383,      333000,       -6000,         700
6384,      333000,       -5100,         700
6385,      353000,       -6000,         700
6386,      353000,       -5100,         700
6387,      373000,       -6000,         700
6388,      373000,       -5100,         700
6389,      393000,       -6000,         700
6390,      393000,       -5100,         700
6391,       13000,       -3150,         700
6392,       33000,       -3150,         700
6393,       53000,       -3150,         700
6394,       73000,       -3150,         700
6395,       93000,       -3150,         700
6396,      113000,       -3150,         700
6397,      133000,       -3150,         700
6398,      153000,       -3150,         700
6399,      173000,       -3150,         700
6400,      193000,       -3150,         700
6401,      213000,       -3150,         700
6402,      233000,       -3150,         700
6403,      253000,       -3150,         700
6404,      273000,       -3150,         700
6405,      293000,       -3150,         700
6406,      313000,       -3150,         700
6407,      333000,       -3150,         700
6408,      353000,       -3150,         700
6409,      373000,       -3150,         700
6410,      393000,       -3150,         700
6411,       13000,       -1050,         700
6412,       33000,       -1050,         700
6413,       53000,       -1050,         700
6414,       73000,       -1050,         700
6415,       93000,       -1050,         700
6416,      113000,       -1050,         700
6417,      133000,       -1050,         700
6418,      153000,       -1050,         700
6419,      173000,       -1050,         700
6420,      193000,       -1050,         700
6421,      213000,       -1050,         700
6422,      233000,       -1050,         700
6423,      253000,       -1050,         700
6424,      273000,       -1050,         700
6425,      293000,       -1050,         700
6426,      313000,       -1050,         700
6427,      333000,       -1050,         700
6428,      353000,       -1050,         700
6429,      373000,       -1050,         700
6430,      393000,       -1050,         700
6431,       13000,           0,         700
6432,       33000,           0,         700
6433,       53000,           0,         700
6434,       73000,           0,         700
6435,       93000,           0,         700
6436,      113000,           0,         700
6437,      133000,           0,         700
6438,      153000,           0,         700
6439,      173000,           0,         700
6440,      193000,           0,         700
6441,      213000,           0,         700
6442,      233000,           0,         700
6443,      253000,           0,         700
6444,      273000,           0,         700
6445,      293000,           0,         700
6446,      313000,           0,         700
6447,      333000,           0,         700
6448,      353000,           0,         700
6449,      373000,           0,         700
6450,      393000,           0,         700
6451,       13000,        1050,         700
6452,       33000,        1050,         700
6453,       53000,        1050,         700
6454,       73000,        1050,         700
6455,       93000,        1050,         700
6456,      113000,        1050,         700
6457,      133000,        1050,         700
6458,      153000,        1050,         700
6459,      173000,        1050,         700
6460,      193000,        1050,         700
6461,      213000,        1050,         700
6462,      233000,        1050,         700
6463,      253000,        1050,         700
6464,      273000,        1050,         700
6465,      293000,        1050,         700
6466,      313000,        1050,         700
6467,      333000,        1050,         700
6468,      353000,        1050,         700
6469,      373000,        1050,         700
6470,      393000,        1050,         700
6471,       13000,        3150,         700
6472,       33000,        3150,         700
6473,       53000,        3150,         700
6474,       73000,        3150,         700
6475,       93000,        3150,         700
6476,      113000,        3150,         700
6477,      133000,        3150,         700
6478,      153000,        3150,         700
6479,      173000,        3150,         700
6480,      193000,        3150,         700
6481,      213000,        3150,         700
6482,      233000,        3150,         700
6483,      253000,        3150,         700
6484,      273000,        3150,         700
6485,      293000,        3150,         700
6486,      313000,        3150,         700
6487,      333000,        3150,         700
6488,      353000,        3150,         700
6489,      373000,        3150,         700
6490,      393000,        3150,         700
6491,       13000,        5100,         700
6492,       33000,        5100,         700
6493,       53000,        5100,         700
6494,       73000,        5100,         700
6495,       93000,        5100,         700
6496,      113000,        5100,         700
6497,      133000,        5100,         700
6498,      153000,        5100,         700
6499,      173000,        5100,         700
6500,      193000,        5100,         700
6501,      213000,        5100,         700
6502,      233000,        5100,         700
6503,      253000,        5100,         700
6504,      273000,        5100,         700
6505,      293000,        5100,         700
6506,      313000,        5100,         700
6507,      333000,        5100,         700
6508,      353000,        5100,         700
6509,      373000,        5100,         700
6510,      393000,        5100,         700
6511,       13000,        6000,         700
6512,       33000,        6000,         700
6513,       53000,        6000,         700
6514,       73000,        6000,         700
6515,       93000,        6000,         700
6516,      113000,        6000,         700
6517,      133000,        6000,         700
6518,      153000,        6000,         700
6519,      173000,        6000,         700
6520,      193000,        6000,         700
6521,      213000,        6000,         700
6522,      233000,        6000,         700
6523,      253000,        6000,         700
6524,      273000,        6000,         700
6525,      293000,        6000,         700
6526,      313000,        6000,         700
6527,      333000,        6000,         700
6528,      353000,        6000,         700
6529,      373000,        6000,         700
6530,      393000,        6000,         700
6531,       14000,       -6000,         700
6532,       14000,       -5100,         700
6533,       34000,       -6000,         700
6534,       34000,       -5100,         700
6535,       54000,       -6000,         700
6536,       54000,       -5100,         700
6537,       74000,       -6000,         700
6538,       74000,       -5100,         700
6539,       94000,       -6000,         700
6540,       94000,       -5100,         700
6541,      114000,       -6000,         700
6542,      114000,       -5100,         700
6543,      134000,       -6000,         700
6544,      134000,       -5100,         700
6545,      154000,       -6000,         700
6546,      154000,       -5100,         700
6547,      174000,       -6000,         700
6548,      174000,       -5100,         700
6549,      194000,       -6000,         700
6550,      194000,       -5100,         700
6551,      214000,       -6000,         700
6552,      214000,       -5100,         700
6553,      234000,       -6000,         700
6554,      234000,       -5100,         700
6555,      254000,       -6000,         700
6556,      254000,       -5100,         700
6557,      274000,       -6000,         700
6558,      274000,       -5100,         700
6559,      294000,       -6000,         700
6560,      294000,       -5100,         700
6561,      314000,       -6000,         700
6562,      314000,       -5100,         700
6563,      334000,       -6000,         700
6564,      334000,       -5100,         700
6565,      354000,       -6000,         700
6566,      354000,       -5100,         700
6567,      374000,       -6000,         700
6568,      374000,       -5100,         700
6569,      394000,       -6000,         700
6570,      394000,       -5100,         700
6571,       14000,       -3150,         700
6572,       34000,       -3150,         700
6573,       54000,       -3150,         700
6574,       74000,       -3150,         700
6575,       94000,       -3150,         700
6576,      114000,       -3150,         700
6577,      134000,       -3150,         700
6578,      154000,       -3150,         700
6579,      174000,       -3150,         700
6580,      194000,       -3150,         700
6581,      214000,       -3150,         700
6582,      234000,       -3150,         700
6583,      254000,       -3150,         700
6584,      274000,       -3150,         700
6585,      294000,       -3150,         700
6586,      314000,       -3150,         700
6587,      334000,       -3150,         700
6588,      354000,       -3150,         700
6589,      374000,       -3150,         700
6590,      394000,       -3150,         700
6591,       14000,       -1050,         700
6592,       34000,       -1050,         700
6593,       54000,       -1050,         700
6594,       74000,       -1050,         700
6595,       94000,       -1050,         700
6596,      114000,       -1050,         700
6597,      134000,       -1050,         700
6598,      154000,       -1050,         700
6599,      174000,       -1050,         700
6600,      194000,       -1050,         700
6601,      214000,       -1050,         700
6602,      234000,       -1050,         700
6603,      254000,       -1050,         700
6604,      274000,       -1050,         700
6605,      294000,       -1050,         700
6606,      314000,       -1050,         700
6607,      334000,       -1050,         700
6608,      354000,       -1050,         700
6609,      374000,       -1050,         700
6610,      394000,       -1050,         700
6611,       14000,           0,         700
6612,       34000,           0,         700
6613,       54000,           0,         700
6614,       74000,           0,         700
6615,       94000,           0,         700
6616,      114000,           0,         700
6617,      134000,           0,         700
6618,      154000,           0,         700
6619,      174000,           0,         700
6620,      194000,           0,         700
6621,      214000,           0,         700
6622,      234000,           0,         700
6623,      254000,           0,         700
6624,      274000,           0,         700
6625,      294000,           0,         700
6626,      314000,           0,         700
6627,      334000,           0,         700
6628,      354000,           0,         700
6629,      374000,           0,         700
6630,      394000,           0,         700
6631,       14000,        1050,         700
6632,       34000,        1050,         700
6633,       54000,        1050,         700
6634,       74000,        1050,         700
6635,       94000,        1050,         700
6636,      114000,        1050,         700
6637,      134000,        1050,         700
6638,      154000,        1050,         700
6639,      174000,        1050,         700
6640,      194000,        1050,         700
6641,      214000,        1050,         700
6642,      234000,        1050,         700
6643,      254000,        1050,         700
6644,      274000,        1050,         700
6645,      294000,        1050,         700
6646,      314000,        1050,         700
6647,      334000,        1050,         700
6648,      354000,        1050,         700
6649,      374000,        1050,         700
6650,      394000,        1050,         700
6651,       14000,        3150,         700
6652,       34000,        3150,         700
6653,       54000,        3150,         700
6654,       74000,        3150,         700
6655,       94000,        3150,         700
6656,      114000,        3150,         700
6657,      134000,        3150,         700
6658,      154000,        3150,         700
6659,      174000,        3150,         700
6660,      194000,        3150,         700
6661,      214000,        3150,         700
6662,      234000,        3150,         700
6663,      254000,        3150,         700
6664,      274000,        3150,         700
6665,      294000,        3150,         700
6666,      314000,        3150,         700
6667,      334000,        3150,         700
6668,      354000,        3150,         700
6669,      374000,        3150,         700
6670,      394000,        3150,         700
6671,       14000,        5100,         700
6672,       34000,        5100,         700
6673,       54000,        5100,         700
6674,       74000,        5100,         700
6675,       94000,        5100,         700
6676,      114000,        5100,         700
6677,      134000,        5100,         700
6678,      154000,        5100,         700
6679,      174000,        5100,         700
6680,      194000,        5100,         700
6681,      214000,        5100,         700
6682,      234000,        5100,         700
6683,      254000,        5100,         700
6684,      274000,        5100,         700
6685,      294000,        5100,         700
6686,      314000,        5100,         700
6687,      334000,        5100,         700
6688,      354000,        5100,         700
6689,      374000,        5100,         700
6690,      394000,        5100,         700
6691,       14000,        6000,         700
6692,       34000,        6000,         700
6693,       54000,        6000,         700
6694,       74000,        6000,         700
6695,       94000,        6000,         700
6696,      114000,        6000,         700
6697,      134000,        6000,         700
6698,      154000,        6000,         700
6699,      174000,        6000,         700
6700,      194000,        6000,         700
6701,      214000,        6000,         700
6702,      234000,        6000,         700
6703,      254000,        6000,         700
6704,      274000,        6000,         700
6705,      294000,        6000,         700
6706,      314000,        6000,         700
6707,      334000,        6000,         700
6708,      354000,        6000,         700
6709,      374000,        6000,         700
6710,      394000,        6000,         700
6711,       15000,       -6000,         700
6712,       15000,       -5100,         700
6713,       35000,       -6000,         700
6714,       35000,       -5100,         700
6715,       55000,       -6000,         700
6716,       55000,       -5100,         700
6717,       75000,       -6000,         700
6718,       75000,       -5100,         700
6719,       95000,       -6000,         700
6720,       95000,       -5100,         700
6721,      115000,       -6000,         700
6722,      115000,       -5100,         700
6723,      135000,       -6000,         700
6724,      135000,       -5100,         700
6725,      155000,       -6000,         700
6726,      155000,       -5100,         700
6727,      175000,       -6000,         700
6728,      175000,       -5100,         700
6729,      195000,       -6000,         700
6730,      195000,       -5100,         700
6731,      215000,       -6000,         700
6732,      215000,       -5100,         700
6733,      235000,       -6000,         700
6734,      235000,       -5100,         700
6735,      255000,       -6000,         700
6736,      255000,       -5100,         700
6737,      275000,       -6000,         700
6738,      275000,       -5100,         700
6739,      295000,       -6000,         700
6740,      295000,       -5100,         700
6741,      315000,       -6000,         700
6742,      315000,       -5100,         700
6743,      335000,       -6000,         700
6744,      335000,       -5100,         700
6745,      355000,       -6000,         700
6746,      355000,       -5100,         700
6747,      375000,       -6000,         700
6748,      375000,       -5100,         700
6749,      395000,       -6000,         700
6750,      395000,       -5100,         700
6751,       15000,       -3150,         700
6752,       35000,       -3150,         700
6753,       55000,       -3150,         700
6754,       75000,       -3150,         700
6755,       95000,       -3150,         700
6756,      115000,       -3150,         700
6757,      135000,       -3150,         700
6758,      155000,       -3150,         700
6759,      175000,       -3150,         700
6760,      195000,       -3150,         700
6761,      215000,       -3150,         700
6762,      235000,       -3150,         700
6763,      255000,       -3150,         700
6764,      275000,       -3150,         700
6765,      295000,       -3150,         700
6766,      315000,       -3150,         700
6767,      335000,       -3150,         700
6768,      355000,       -3150,         700
6769,      375000,       -3150,         700
6770,      395000,       -3150,         700
6771,       15000,       -1050,         700
6772,       35000,       -1050,         700
6773,       55000,       -1050,         700
6774,       75000,       -1050,         700
6775,       95000,       -1050,         700
6776,      115000,       -1050,         700
6777,      135000,       -1050,         700
6778,      155000,       -1050,         700
6779,      175000,       -1050,         700
6780,      195000,       -1050,         700
6781,      215000,       -1050,         700
6782,      235000,       -1050,         700
6783,      255000,       -1050,         700
6784,      275000,       -1050,         700
6785,      295000,       -1050,         700
6786,      315000,       -1050,         700
6787,      335000,       -1050,         700
6788,      355000,       -1050,         700
6789,      375000,       -1050,         700
6790,      395000,       -1050,         700
6791,       15000,           0,         700
6792,       35000,           0,         700
6793,       55000,           0,         700
6794,       75000,           0,         700
6795,       95000,           0,         700
6796,      115000,           0,         700
6797,      135000,           0,         700
6798,      155000,           0,         700
6799,      175000,           0,         700
6800,      195000,           0,         700
6801,      215000,           0,         700
6802,      235000,           0,         700
6803,      255000,           0,         700
6804,      275000,           0,         700
6805,      295000,           0,         700
6806,      315000,           0,         700
6807,      335000,           0,         700
6808,      355000,           0,         700
6809,      375000,           0,         700
6810,      395000,           0,         700
6811,       15000,        1050,         700
6812,       35000,        1050,         700
6813,       55000,        1050,         700
6814,       75000,        1050,         700
6815,       95000,        1050,         700
6816,      115000,        1050,         700
6817,      135000,        1050,         700
6818,      155000,        1050,         700
6819,      175000,        1050,         700
6820,      195000,        1050,         700
6821,      215000,        1050,         700
6822,      235000,        1050,         700
6823,      255000,        1050,         700
6824,      275000,        1050,         700
6825,      295000,        1050,         700
6826,      315000,        1050,         700
6827,      335000,        1050,         700
6828,      355000,        1050,         700
6829,      375000,        1050,         700
6830,      395000,        1050,         700
6831,       15000,        3150,         700
6832,       35000,        3150,         700
6833,       55000,        3150,         700
6834,       75000,        3150,         700
6835,       95000,        3150,         700
6836,      115000,        3150,         700
6837,      135000,        3150,         700
6838,      155000,        3150,         700
6839,      175000,        3150,         700
6840,      195000,        3150,         700
6841,      215000,        3150,         700
6842,      235000,        3150,         700
6843,      255000,        3150,         700
6844,      275000,        3150,         700
6845,      295000,        3150,         700
6846,      315000,        3150,         700
6847,      335000,        3150,         700
6848,      355000,        3150,         700
6849,      375000,        3150,         700
6850,      395000,        3150,         700
6851,       15000,        5100,         700
6852,       35000,        5100,         700
6853,       55000,        5100,         700
6854,       75000,        5100,         700
6855,       95000,        5100,         700
6856,      115000,        5100,         700
6857,      135000,        5100,         700
6858,      155000,        5100,         700
6859,      175000,        5100,         700
6860,      195000,        5100,         700
6861,      215000,        5100,         700
6862,      235000,        5100,         700
6863,      255000,        5100,         700
6864,      275000,        5100,         700
6865,      295000,        5100,         700
6866,      315000,        5100,         700
6867,      335000,        5100,         700
6868,      355000,        5100,         700
6869,      375000,        5100,         700
6870,      395000,        5100,         700
6871,       15000,        6000,         700
6872,       35000,        6000,         700
6873,       55000,        6000,         700
6874,       75000,        6000,         700
6875,       95000,        6000,         700
6876,      115000,        6000,         700
6877,      135000,        6000,         700
6878,      155000,        6000,         700
6879,      175000,        6000,         700
6880,      195000,        6000,         700
6881,      215000,        6000,         700
6882,      235000,        6000,         700
6883,      255000,        6000,         700
6884,      275000,        6000,         700
6885,      295000,        6000,         700
6886,      315000,        6000,         700
6887,      335000,        6000,         700
6888,      355000,        6000,         700
6889,      375000,        6000,         700
6890,      395000,        6000,         700
6891,       16000,       -6000,         700
6892,       16000,       -5100,         700
6893,       36000,       -6000,         700
6894,       36000,       -5100,         700
6895,       56000,       -6000,         700
6896,       56000,       -5100,         700
6897,       76000,       -6000,         700
6898,       76000,       -5100,         700
6899,       96000,       -6000,         700
6900,       96000,       -5100,         700
6901,      116000,       -6000,         700
6902,      116000,       -5100,         700
6903,      136000,       -6000,         700
6904,      136000,       -5100,         700
6905,      156000,       -6000,         700
6906,      156000,       -5100,         700
6907,      176000,       -6000,         700
6908,      176000,       -5100,         700
6909,      196000,       -6000,         700
6910,      196000,       -5100,         700
6911,      216000,       -6000,         700
6912,      216000,       -5100,         700
6913,      236000,       -6000,         700
6914,      236000,       -5100,         700
6915,      256000,       -6000,         700
6916,      256000,       -5100,         700
6917,      276000,       -6000,         700
6918,      276000,       -5100,         700
6919,      296000,       -6000,         700
6920,      296000,       -5100,         700
6921,      316000,       -6000,         700
6922,      316000,       -5100,         700
6923,      336000,       -6000,         700
6924,      336000,       -5100,         700
6925,      356000,       -6000,         700
6926,      356000,       -5100,         700
6927,      376000,       -6000,         700
6928,      376000,       -5100,         700
6929,      396000,       -6000,         700
6930,      396000,       -5100,         700
6931,       16000,       -3150,         700
6932,       36000,       -3150,         700
6933,       56000,       -3150,         700
6934,       76000,       -3150,         700
6935,       96000,       -3150,         700
6936,      116000,       -3150,         700
6937,      136000,       -3150,         700
6938,      156000,       -3150,         700
6939,      176000,       -3150,         700
6940,      196000,       -3150,         700
6941,      216000,       -3150,         700
6942,      236000,       -3150,         700
6943,      256000,       -3150,         700
6944,      276000,       -3150,         700
6945,      296000,       -3150,         700
6946,      316000,       -3150,         700
6947,      336000,       -3150,         700
6948,      356000,       -3150,         700
6949,      376000,       -3150,         700
6950,      396000,       -3150,         700
6951,       16000,       -1050,         700
6952,       36000,       -1050,         700
6953,       56000,       -1050,         700
6954,       76000,       -1050,         700
6955,       96000,       -1050,         700
6956,      116000,       -1050,         700
6957,      136000,       -1050,         700
6958,      156000,       -1050,         700
6959,      176000,       -1050,         700
6960,      196000,       -1050,         700
6961,      216000,       -1050,         700
6962,      236000,       -1050,         700
6963,      256000,       -1050,         700
6964,      276000,       -1050,         700
6965,      296000,       -1050,         700
6966,      316000,       -1050,         700
6967,      336000,       -1050,         700
6968,      356000,       -1050,         700
6969,      376000,       -1050,         700
6970,      396000,       -1050,         700
6971,       16000,           0,         700
6972,       36000,           0,         700
6973,       56000,           0,         700
6974,       76000,           0,         700
6975,       96000,           0,         700
6976,      116000,           0,         700
6977,      136000,           0,         700
6978,      156000,           0,         700
6979,      176000,           0,         700
6980,      196000,           0,         700
6981,      216000,           0,         700
6982,      236000,           0,         700
6983,      256000,           0,         700
6984,      276000,           0,         700
6985,      296000,           0,         700
6986,      316000,           0,         700
6987,      336000,           0,         700
6988,      356000,           0,         700
6989,      376000,           0,         700
6990,      396000,           0,         700
6991,       16000,        1050,         700
6992,       36000,        1050,         700
6993,       56000,        1050,         700
6994,       76000,        1050,         700
6995,       96000,        1050,         700
6996,      116000,        1050,         700
6997,      136000,        1050,         700
6998,      156000,        1050,         700
6999,      176000,        1050,         700
7000,      196000,        1050,         700
7001,      216000,        1050,         700
7002,      236000,        1050,         700
7003,      256000,        1050,         700
7004,      276000,        1050,         700
7005,      296000,        1050,         700
7006,      316000,        1050,         700
7007,      336000,        1050,         700
7008,      356000,        1050,         700
7009,      376000,        1050,         700
7010,      396000,        1050,         700
7011,       16000,        3150,         700
7012,       36000,        3150,         700
7013,       56000,        3150,         700
7014,       76000,        3150,         700
7015,       96000,        3150,         700
7016,      116000,        3150,         700
7017,      136000,        3150,         700
7018,      156000,        3150,         700
7019,      176000,        3150,         700
7020,      196000,        3150,         700
7021,      216000,        3150,         700
7022,      236000,        3150,         700
7023,      256000,        3150,         700
7024,      276000,        3150,         700
7025,      296000,        3150,         700
7026,      316000,        3150,         700
7027,      336000,        3150,         700
7028,      356000,        3150,         700
7029,      376000,        3150,         700
7030,      396000,        3150,         700
7031,       16000,        5100,         700
7032,       36000,        5100,         700
7033,       56000,        5100,         700
7034,       76000,        5100,         700
7035,       96000,        5100,         700
7036,      116000,        5100,         700
7037,      136000,        5100,         700
7038,      156000,        5100,         700
7039,      176000,        5100,         700
7040,      196000,        5100,         700
7041,      216000,        5100,         700
7042,      236000,        5100,         700
7043,      256000,        5100,         700
7044,      276000,        5100,         700
7045,      296000,        5100,         700
7046,      316000,        5100,         700
7047,      336000,        5100,         700
7048,      356000,        5100,         700
7049,      376000,        5100,         700
7050,      396000,        5100,         700
7051,       16000,        6000,         700
7052,       36000,        6000,         700
7053,       56000,        6000,         700
7054,       76000,        6000,         700
7055,       96000,        6000,         700
7056,      116000,        6000,         700
7057,      136000,        6000,         700
7058,      156000,        6000,         700
7059,      176000,        6000,         700
7060,      196000,        6000,         700
7061,      216000,        6000,         700
7062,      236000,        6000,         700
7063,      256000,        6000,         700
7064,      276000,        6000,         700
7065,      296000,        6000,         700
7066,      316000,        6000,         700
7067,      336000,        6000,         700
7068,      356000,        6000,         700
7069,      376000,        6000,         700
7070,      396000,        6000,         700
7071,       17000,       -6000,         700
7072,       17000,       -5100,         700
7073,       37000,       -6000,         700
7074,       37000,       -5100,         700
7075,       57000,       -6000,         700
7076,       57000,       -5100,         700
7077,       77000,       -6000,         700
7078,       77000,       -5100,         700
7079,       97000,       -6000,         700
7080,       97000,       -5100,         700
7081,      117000,       -6000,         700
7082,      117000,       -5100,         700
7083,      137000,       -6000,         700
7084,      137000,       -5100,         700
7085,      157000,       -6000,         700
7086,      157000,       -5100,         700
7087,      177000,       -6000,         700
7088,      177000,       -5100,         700
7089,      197000,       -6000,         700
7090,      197000,       -5100,         700
7091,      217000,       -6000,         700
7092,      217000,       -5100,         700
7093,      237000,       -6000,         700
7094,      237000,       -5100,         700
7095,      257000,       -6000,         700
7096,      257000,       -5100,         700
7097,      277000,       -6000,         700
7098,      277000,       -5100,         700
7099,      297000,       -6000,         700
7100,      297000,       -5100,         700
7101,      317000,       -6000,         700
7102,      317000,       -5100,         700
7103,      337000,       -6000,         700
7104,      337000,       -5100,         700
7105,      357000,       -6000,         700
7106,      357000,       -5100,         700
7107,      377000,       -6000,         700
7108,      377000,       -5100,         700
7109,      397000,       -6000,         700
7110,      397000,       -5100,         700
7111,       17000,       -3150,         700
7112,       37000,       -3150,         700
7113,       57000,       -3150,         700
7114,       77000,       -3150,         700
7115,       97000,       -3150,         700
7116,      117000,       -3150,         700
7117,      137000,       -3150,         700
7118,      157000,       -3150,         700
7119,      177000,       -3150,         700
7120,      197000,       -3150,         700
7121,      217000,       -3150,         700
7122,      237000,       -3150,         700
7123,      257000,       -3150,         700
7124,      277000,       -3150,         700
7125,      297000,       -3150,         700
7126,      317000,       -3150,         700
7127,      337000,       -3150,         700
7128,      357000,       -3150,         700
7129,      377000,       -3150,         700
7130,      397000,       -3150,         700
7131,       17000,       -1050,         700
7132,       37000,       -1050,         700
7133,       57000,       -1050,         700
7134,       77000,       -1050,         700
7135,       97000,       -1050,         700
7136,      117000,       -1050,         700
7137,      137000,       -1050,         700
7138,      157000,       -1050,         700
7139,      177000,       -1050,         700
7140,      197000,       -1050,         700
7141,      217000,       -1050,         700
7142,      237000,       -1050,         700
7143,      257000,       -1050,         700
7144,      277000,       -1050,         700
7145,      297000,       -1050,         700
7146,      317000,       -1050,         700
7147,      337000,       -1050,         700
7148,      357000,       -1050,         700
7149,      377000,       -1050,         700
7150,      397000,       -1050,         700
7151,       17000,           0,         700
7152,       37000,           0,         700
7153,       57000,           0,         700
7154,       77000,           0,         700
7155,       97000,           0,         700
7156,      117000,           0,         700
7157,      137000,           0,         700
7158,      157000,           0,         700
7159,      177000,           0,         700
7160,      197000,           0,         700
7161,      217000,           0,         700
7162,      237000,           0,         700
7163,      257000,           0,         700
7164,      277000,           0,         700
7165,      297000,           0,         700
7166,      317000,           0,         700
7167,      337000,           0,         700
7168,      357000,           0,         700
7169,      377000,           0,         700
7170,      397000,           0,         700
7171,       17000,        1050,         700
7172,       37000,        1050,         700
7173,       57000,        1050,         700
7174,       77000,        1050,         700
7175,       97000,        1050,         700
7176,      117000,        1050,         700
7177,      137000,        1050,         700
7178,      157000,        1050,         700
7179,      177000,        1050,         700
7180,      197000,        1050,         700
7181,      217000,        1050,         700
7182,      237000,        1050,         700
7183,      257000,        1050,         700
7184,      277000,        1050,         700
7185,      297000,        1050,         700
7186,      317000,        1050,         700
7187,      337000,        1050,         700
7188,      357000,        1050,         700
7189,      377000,        1050,         700
7190,      397000,        1050,         700
7191,       17000,        3150,         700
7192,       37000,        3150,         700
7193,       57000,        3150,         700
7194,       77000,        3150,         700
7195,       97000,        3150,         700
7196,      117000,        3150,         700
7197,      137000,        3150,         700
7198,      157000,        3150,         700
7199,      177000,        3150,         700
7200,      197000,        3150,         700
7201,      217000,        3150,         700
7202,      237000,        3150,         700
7203,      257000,        3150,         700
7204,      277000,        3150,         700
7205,      297000,        3150,         700
7206,      317000,        3150,         700
7207,      337000,        3150,         700
7208,      357000,        3150,         700
7209,      377000,        3150,         700
7210,      397000,        3150,         700
7211,       17000,        5100,         700
7212,       37000,        5100,         700
7213,       57000,        5100,         700
7214,       77000,        5100,         700
7215,       97000,        5100,         700
7216,      117000,        5100,         700
7217,      137000,        5100,         700
7218,      157000,        5100,         700
7219,      177000,        5100,         700
7220,      197000,        5100,         700
7221,      217000,        5100,         700
7222,      237000,        5100,         700
7223,      257000,        5100,         700
7224,      277000,        5100,         700
7225,      297000,        5100,         700
7226,      317000,        5100,         700
7227,      337000,        5100,         700
7228,      357000,        5100,         700
7229,      377000,        5100,         700
7230,      397000,        5100,         700
7231,       17000,        6000,         700
7232,       37000,        6000,         700
7233,       57000,        6000,         700
7234,       77000,        6000,         700
7235,       97000,        6000,         700
7236,      117000,        6000,         700
7237,      137000,        6000,         700
7238,      157000,        6000,         700
7239,      177000,        6000,         700
7240,      197000,        6000,         700
7241,      217000,        6000,         700
7242,      237000,        6000,         700
7243,      257000,        6000,         700
7244,      277000,        6000,         700
7245,      297000,        6000,         700
7246,      317000,        6000,         700
7247,      337000,        6000,         700
7248,      357000,        6000,         700
7249,      377000,        6000,         700
7250,      397000,        6000,         700
7251,       18000,       -6000,         700
7252,       18000,       -5100,         700
7253,       38000,       -6000,         700
7254,       38000,       -5100,         700
7255,       58000,       -6000,         700
7256,       58000,       -5100,         700
7257,       78000,       -6000,         700
7258,       78000,       -5100,         700
7259,       98000,       -6000,         700
7260,       98000,       -5100,         700
7261,      118000,       -6000,         700
7262,      118000,       -5100,         700
7263,      138000,       -6000,         700
7264,      138000,       -5100,         700
7265,      158000,       -6000,         700
7266,      158000,       -5100,         700
7267,      178000,       -6000,         700
7268,      178000,       -5100,         700
7269,      198000,       -6000,         700
7270,      198000,       -5100,         700
7271,      218000,       -6000,         700
7272,      218000,       -5100,         700
7273,      238000,       -6000,         700
7274,      238000,       -5100,         700
7275,      258000,       -6000,         700
7276,      258000,       -5100,         700
7277,      278000,       -6000,         700
7278,      278000,       -5100,         700
7279,      298000,       -6000,         700
7280,      298000,       -5100,         700
7281,      318000,       -6000,         700
7282,      318000,       -5100,         700
7283,      338000,       -6000,         700
7284,      338000,       -5100,         700
7285,      358000,       -6000,         700
7286,      358000,       -5100,         700
7287,      378000,       -6000,         700
7288,      378000,       -5100,         700
7289,      398000,       -6000,         700
7290,      398000,       -5100,         700
7291,       18000,       -3150,         700
7292,       38000,       -3150,         700
7293,       58000,       -3150,         700
7294,       78000,       -3150,         700
7295,       98000,       -3150,         700
7296,      118000,       -3150,         700
7297,      138000,       -3150,         700
7298,      158000,       -3150,         700
7299,      178000,       -3150,         700
7300,      198000,       -3150,         700
7301,      218000,       -3150,         700
7302,      238000,       -3150,         700
7303,      258000,       -3150,         700
7304,      278000,       -3150,         700
7305,      298000,       -3150,         700
7306,      318000,       -3150,         700
7307,      338000,       -3150,         700
7308,      358000,       -3150,         700
7309,      378000,       -3150,         700
7310,      398000,       -3150,         700
7311,       18000,       -1050,         700
7312,       38000,       -1050,         700
7313,       58000,       -1050,         700
7314,       78000,       -1050,         700
7315,       98000,       -1050,         700
7316,      118000,       -1050,         700
7317,      138000,       -1050,         700
7318,      158000,       -1050,         700
7319,      178000,       -1050,         700
7320,      198000,       -1050,         700
7321,      218000,       -1050,         700
7322,      238000,       -1050,         700
7323,      258000,       -1050,         700
7324,      278000,       -1050,         700
7325,      298000,       -1050,         700
7326,      318000,       -1050,         700
7327,      338000,       -1050,         700
7328,      358000,       -1050,         700
7329,      378000,       -1050,         700
7330,      398000,       -1050,         700
7331,       18000,           0,         700
7332,       38000,           0,         700
7333,       58000,           0,         700
7334,       78000,           0,         700
7335,       98000,           0,         700
7336,      118000,           0,         700
7337,      138000,           0,         700
7338,      158000,           0,         700
7339,      178000,           0,         700
7340,      198000,           0,         700
7341,      218000,           0,         700
7342,      238000,           0,         700
7343,      258000,           0,         700
7344,      278000,           0,         700
7345,      298000,           0,         700
7346,      318000,           0,         700
7347,      338000,           0,         700
7348,      358000,           0,         700
7349,      378000,           0,         700
7350,      398000,           0,         700
7351,       18000,        1050,         700
7352,       38000,        1050,         700
7353,       58000,        1050,         700
7354,       78000,        1050,         700
7355,       98000,        1050,         700
7356,      118000,        1050,         700
7357,      138000,        1050,         700
7358,      158000,        1050,         700
7359,      178000,        1050,         700
7360,      198000,        1050,         700
7361,      218000,        1050,         700
7362,      238000,        1050,         700
7363,      258000,        1050,         700
7364,      278000,        1050,         700
7365,      298000,        1050,         700
7366,      318000,        1050,         700
7367,      338000,        1050,         700
7368,      358000,        1050,         700
7369,      378000,        1050,         700
7370,      398000,        1050,         700
7371,       18000,        3150,         700
7372,       38000,        3150,         700
7373,       58000,        3150,         700
7374,       78000,        3150,         700
7375,       98000,        3150,         700
7376,      118000,        3150,         700
7377,      138000,        3150,         700
7378,      158000,        3150,         700
7379,      178000,        3150,         700
7380,      198000,        3150,         700
7381,      218000,        3150,         700
7382,      238000,        3150,         700
7383,      258000,        3150,         700
7384,      278000,        3150,         700
7385,      298000,        3150,         700
7386,      318000,        3150,         700
7387,      338000,        3150,         700
7388,      358000,        3150,         700
7389,      378000,        3150,         700
7390,      398000,        3150,         700
7391,       18000,        5100,         700
7392,       38000,        5100,         700
7393,       58000,        5100,         700
7394,       78000,        5100,         700
7395,       98000,        5100,         700
7396,      118000,        5100,         700
7397,      138000,        5100,         700
7398,      158000,        5100,         700
7399,      178000,        5100,         700
7400,      198000,        5100,         700
7401,      218000,        5100,         700
7402,      238000,        5100,         700
7403,      258000,        5100,         700
7404,      278000,        5100,         700
7405,      298000,        5100,         700
7406,      318000,        5100,         700
7407,      338000,        5100,         700
7408,      358000,        5100,         700
7409,      378000,        5100,         700
7410,      398000,        5100,         700
7411,       18000,        6000,         700
7412,       38000,        6000,         700
7413,       58000,        6000,         700
7414,       78000,        6000,         700
7415,       98000,        6000,         700
7416,      118000,        6000,         700
7417,      138000,        6000,         700
7418,      158000,        6000,         700
7419,      178000,        6000,         700
7420,      198000,        6000,         700
7421,      218000,        6000,         700
7422,      238000,        6000,         700
7423,      258000,        6000,         700
7424,      278000,        6000,         700
7425,      298000,        6000,         700
7426,      318000,        6000,         700
7427,      338000,        6000,         700
7428,      358000,        6000,         700
7429,      378000,        6000,         700
7430,      398000,        6000,         700
7431,       19000,       -6000,         700
7432,       19000,       -5100,         700
7433,       39000,       -6000,         700
7434,       39000,       -5100,         700
7435,       59000,       -6000,         700
7436,       59000,       -5100,         700
7437,       79000,       -6000,         700
7438,       79000,       -5100,         700
7439,       99000,       -6000,         700
7440,       99000,       -5100,         700
7441,      119000,       -6000,         700
7442,      119000,       -5100,         700
7443,      139000,       -6000,         700
7444,      139000,       -5100,         700
7445,      159000,       -6000,         700
7446,      159000,       -5100,         700
7447,      179000,       -6000,         700
7448,      179000,       -5100,         700
7449,      199000,       -6000,         700
7450,      199000,       -5100,         700
7451,      219000,       -6000,         700
7452,      219000,       -5100,         700
7453,      239000,       -6000,         700
7454,      239000,       -5100,         700
7455,      259000,       -6000,         700
7456,      259000,       -5100,         700
7457,      279000,       -6000,         700
7458,      279000,       -5100,         700
7459,      299000,       -6000,         700
7460,      299000,       -5100,         700
7461,      319000,       -6000,         700
7462,      319000,       -5100,         700
7463,      339000,       -6000,         700
7464,      339000,       -5100,         700
7465,      359000,       -6000,         700
7466,      359000,       -5100,         700
7467,      379000,       -6000,         700
7468,      379000,       -5100,         700
7469,      399000,       -6000,         700
7470,      399000,       -5100,         700
7471,       19000,       -3150,         700
7472,       39000,       -3150,         700
7473,       59000,       -3150,         700
7474,       79000,       -3150,         700
7475,       99000,       -3150,         700
7476,      119000,       -3150,         700
7477,      139000,       -3150,         700
7478,      159000,       -3150,         700
7479,      179000,       -3150,         700
7480,      199000,       -3150,         700
7481,      219000,       -3150,         700
7482,      239000,       -3150,         700
7483,      259000,       -3150,         700
7484,      279000,       -3150,         700
7485,      299000,       -3150,         700
7486,      319000,       -3150,         700
7487,      339000,       -3150,         700
7488,      359000,       -3150,         700
7489,      379000,       -3150,         700
7490,      399000,       -3150,         700
7491,       19000,       -1050,         700
7492,       39000,       -1050,         700
7493,       59000,       -1050,         700
7494,       79000,       -1050,         700
7495,       99000,       -1050,         700
7496,      119000,       -1050,         700
7497,      139000,       -1050,         700
7498,      159000,       -1050,         700
7499,      179000,       -1050,         700
7500,      199000,       -1050,         700
7501,      219000,       -1050,         700
7502,      239000,       -1050,         700
7503,      259000,       -1050,         700
7504,      279000,       -1050,         700
7505,      299000,       -1050,         700
7506,      319000,       -1050,         700
7507,      339000,       -1050,         700
7508,      359000,       -1050,         700
7509,      379000,       -1050,         700
7510,      399000,       -1050,         700
7511,       19000,           0,         700
7512,       39000,           0,         700
7513,       59000,           0,         700
7514,       79000,           0,         700
7515,       99000,           0,         700
7516,      119000,           0,         700
7517,      139000,           0,         700
7518,      159000,           0,         700
7519,      179000,           0,         700
7520,      199000,           0,         700
7521,      219000,           0,         700
7522,      239000,           0,         700
7523,      259000,           0,         700
7524,      279000,           0,         700
7525,      299000,           0,         700
7526,      319000,           0,         700
7527,      339000,           0,         700
7528,      359000,           0,         700
7529,      379000,           0,         700
7530,      399000,           0,         700
7531,       19000,        1050,         700
7532,       39000,        1050,         700
7533,       59000,        1050,         700
7534,       79000,        1050,         700
7535,       99000,        1050,         700
7536,      119000,        1050,         700
7537,      139000,        1050,         700
7538,      159000,        1050,         700
7539,      179000,        1050,         700
7540,      199000,        1050,         700
7541,      219000,        1050,         700
7542,      239000,        1050,         700
7543,      259000,        1050,         700
7544,      279000,        1050,         700
7545,      299000,        1050,         700
7546,      319000,        1050,         700
7547,      339000,        1050,         700
7548,      359000,        1050,         700
7549,      379000,        1050,         700
7550,      399000,        1050,         700
7551,       19000,        3150,         700
7552,       39000,        3150,         700
7553,       59000,        3150,         700
7554,       79000,        3150,         700
7555,       99000,        3150,         700
7556,      119000,        3150,         700
7557,      139000,        3150,         700
7558,      159000,        3150,         700
7559,      179000,        3150,         700
7560,      199000,        3150,         700
7561,      219000,        3150,         700
7562,      239000,        3150,         700
7563,      259000,        3150,         700
7564,      279000,        3150,         700
7565,      299000,        3150,         700
7566,      319000,        3150,         700
7567,      339000,        3150,         700
7568,      359000,        3150,         700
7569,      379000,        3150,         700
7570,      399000,        3150,         700
7571,       19000,        5100,         700
7572,       39000,        5100,         700
7573,       59000,        5100,         700
7574,       79000,        5100,         700
7575,       99000,        5100,         700
7576,      119000,        5100,         700
7577,      139000,        5100,         700
7578,      159000,        5100,         700
7579,      179000,        5100,         700
7580,      199000,        5100,         700
7581,      219000,        5100,         700
7582,      239000,        5100,         700
7583,      259000,        5100,         700
7584,      279000,        5100,         700
7585,      299000,        5100,         700
7586,      319000,        5100,         700
7587,      339000,        5100,         700
7588,      359000,        5100,         700
7589,      379000,        5100,         700
7590,      399000,        5100,         700
7591,       19000,        6000,         700
7592,       39000,        6000,         700
7593,       59000,        6000,         700
7594,       79000,        6000,         700
7595,       99000,        6000,         700
7596,      119000,        6000,         700
7597,      139000,        6000,         700
7598,      159000,        6000,         700
7599,      179000,        6000,         700
7600,      199000,        6000,         700
7601,      219000,        6000,         700
7602,      239000,        6000,         700
7603,      259000,        6000,         700
7604,      279000,        6000,         700
7605,      299000,        6000,         700
7606,      319000,        6000,         700
7607,      339000,        6000,         700
7608,      359000,        6000,         700
7609,      379000,        6000,         700
7610,      399000,        6000,         700
7611,      400000,       -6000,         700
7612,      400000,       -5100,         700
7613,      400000,       -3150,         700
7614,      400000,       -1050,         700
7615,      400000,           0,         700
7616,      400000,        1050,         700
7617,      400000,        3150,         700
7618,      400000,        5100,         700
7619,      400000,        6000,         700


*ELEMENT,  TYPE=B31
1,       1,       2
2,       3,       4
3,       5,       6
4,       7,       8
5,       9,      10
6,      11,      12
7,      13,      14
8,      15,      16
9,      17,      18
10,      19,      20
11,      21,      22
12,      23,      24
13,      25,      26
14,      27,      28
15,      29,      30
16,      31,      32
17,      33,      34
18,      35,      36
19,      37,      38
20,      39,      40
21,       2,      41
22,       4,      42
23,       6,      43
24,       8,      44
25,      10,      45
26,      12,      46
27,      14,      47
28,      16,      48
29,      18,      49
30,      20,      50
31,      22,      51
32,      24,      52
33,      26,      53
34,      28,      54
35,      30,      55
36,      32,      56
37,      34,      57
38,      36,      58
39,      38,      59
40,      40,      60
41,      41,      61
42,      42,      62
43,      43,      63
44,      44,      64
45,      45,      65
46,      46,      66
47,      47,      67
48,      48,      68
49,      49,      69
50,      50,      70
51,      51,      71
52,      52,      72
53,      53,      73
54,      54,      74
55,      55,      75
56,      56,      76
57,      57,      77
58,      58,      78
59,      59,      79
60,      60,      80
61,      61,      81
62,      62,      82
63,      63,      83
64,      64,      84
65,      65,      85
66,      66,      86
67,      67,      87
68,      68,      88
69,      69,      89
70,      70,      90
71,      71,      91
72,      72,      92
73,      73,      93
74,      74,      94
75,      75,      95
76,      76,      96
77,      77,      97
78,      78,      98
79,      79,      99
80,      80,     100
81,      81,     101
82,      82,     102
83,      83,     103
84,      84,     104
85,      85,     105
86,      86,     106
87,      87,     107
88,      88,     108
89,      89,     109
90,      90,     110
91,      91,     111
92,      92,     112
93,      93,     113
94,      94,     114
95,      95,     115
96,      96,     116
97,      97,     117
98,      98,     118
99,      99,     119
100,     100,     120
101,     101,     121
102,     102,     122
103,     103,     123
104,     104,     124
105,     105,     125
106,     106,     126
107,     107,     127
108,     108,     128
109,     109,     129
110,     110,     130
111,     111,     131
112,     112,     132
113,     113,     133
114,     114,     134
115,     115,     135
116,     116,     136
117,     117,     137
118,     118,     138
119,     119,     139
120,     120,     140
121,     121,     141
122,     122,     142
123,     123,     143
124,     124,     144
125,     125,     145
126,     126,     146
127,     127,     147
128,     128,     148
129,     129,     149
130,     130,     150
131,     131,     151
132,     132,     152
133,     133,     153
134,     134,     154
135,     135,     155
136,     136,     156
137,     137,     157
138,     138,     158
139,     139,     159
140,     140,     160
141,     141,     161
142,     142,     162
143,     143,     163
144,     144,     164
145,     145,     165
146,     146,     166
147,     147,     167
148,     148,     168
149,     149,     169
150,     150,     170
151,     151,     171
152,     152,     172
153,     153,     173
154,     154,     174
155,     155,     175
156,     156,     176
157,     157,     177
158,     158,     178
159,     159,     179
160,     160,     180
161,     161,     181
162,     162,     182
163,     163,     183
164,     164,     184
165,     165,     185
166,     166,     186
167,     167,     187
168,     168,     188
169,     169,     189
170,     170,     190
171,     171,     191
172,     172,     192
173,     173,     193
174,     174,     194
175,     175,     195
176,     176,     196
177,     177,     197
178,     178,     198
179,     179,     199
180,     180,     200
181,     181,     201
182,     182,     202
183,     183,     203
184,     184,     204
185,     185,     205
186,     186,     206
187,     187,     207
188,     188,     208
189,     189,     209
190,     190,     210
191,     191,     211
192,     192,     212
193,     193,     213
194,     194,     214
195,     195,     215
196,     196,     216
197,     197,     217
198,     198,     218
199,     199,     219
200,     200,     220
201,     201,     221
202,     202,     222
203,     203,     223
204,     204,     224
205,     205,     225
206,     206,     226
207,     207,     227
208,     208,     228
209,     209,     229
210,     210,     230
211,     211,     231
212,     212,     232
213,     213,     233
214,     214,     234
215,     215,     235
216,     216,     236
217,     217,     237
218,     218,     238
219,     219,     239
220,     220,     240
221,     221,     241
222,     222,     242
223,     223,     243
224,     224,     244
225,     225,     245
226,     226,     246
227,     227,     247
228,     228,     248
229,     229,     249
230,     230,     250
231,     231,     251
232,     232,     252
233,     233,     253
234,     234,     254
235,     235,     255
236,     236,     256
237,     237,     257
238,     238,     258
239,     239,     259
240,     240,     260
241,     241,     261
242,     242,     262
243,     243,     263
244,     244,     264
245,     245,     265
246,     246,     266
247,     247,     267
248,     248,     268
249,     249,     269
250,     250,     270
251,     251,     271
252,     252,     272
253,     253,     273
254,     254,     274
255,     255,     275
256,     256,     276
257,     257,     277
258,     258,     278
259,     259,     279
260,     260,     280
261,     261,     281
262,     262,     282
263,     263,     283
264,     264,     284
265,     265,     285
266,     266,     286
267,     267,     287
268,     268,     288
269,     269,     289
270,     270,     290
271,     271,     291
272,     272,     292
273,     273,     293
274,     274,     294
275,     275,     295
276,     276,     296
277,     277,     297
278,     278,     298
279,     279,     299
280,     280,     300
281,     281,     301
282,     282,     302
283,     283,     303
284,     284,     304
285,     285,     305
286,     286,     306
287,     287,     307
288,     288,     308
289,     289,     309
290,     290,     310
291,     291,     311
292,     292,     312
293,     293,     313
294,     294,     314
295,     295,     315
296,     296,     316
297,     297,     317
298,     298,     318
299,     299,     319
300,     300,     320
301,     301,     321
302,     302,     322
303,     303,     323
304,     304,     324
305,     305,     325
306,     306,     326
307,     307,     327
308,     308,     328
309,     309,     329
310,     310,     330
311,     311,     331
312,     312,     332
313,     313,     333
314,     314,     334
315,     315,     335
316,     316,     336
317,     317,     337
318,     318,     338
319,     319,     339
320,     320,     340
321,     321,     341
322,     322,     342
323,     323,     343
324,     324,     344
325,     325,     345
326,     326,     346
327,     327,     347
328,     328,     348
329,     329,     349
330,     330,     350
331,     331,     351
332,     332,     352
333,     333,     353
334,     334,     354
335,     335,     355
336,     336,     356
337,     337,     357
338,     338,     358
339,     339,     359
340,     340,     360
341,     341,     361
342,     342,     362
343,     343,     363
344,     344,     364
345,     345,     365
346,     346,     366
347,     347,     367
348,     348,     368
349,     349,     369
350,     350,     370
351,     351,     371
352,     352,     372
353,     353,     373
354,     354,     374
355,     355,     375
356,     356,     376
357,     357,     377
358,     358,     378
359,     359,     379
360,     360,     380
361,     361,     381
362,     362,     382
363,     363,     383
364,     364,     384
365,     365,     385
366,     366,     386
367,     367,     387
368,     368,     388
369,     369,     389
370,     370,     390
371,     371,     391
372,     372,     392
373,     373,     393
374,     374,     394
375,     375,     395
376,     376,     396
377,     377,     397
378,     378,     398
379,     379,     399
380,     380,     400
381,     381,       3
382,     382,       5
383,     383,       7
384,     384,       9
385,     385,      11
386,     386,      13
387,     387,      15
388,     388,      17
389,     389,      19
390,     390,      21
391,     391,      23
392,     392,      25
393,     393,      27
394,     394,      29
395,     395,      31
396,     396,      33
397,     397,      35
398,     398,      37
399,     399,      39
400,     400,     401
401,     402,     403
402,     404,     405
403,     406,     407
404,     408,     409
405,     410,     411
406,     412,     413
407,     414,     415
408,     416,     417
409,     418,     419
410,     420,     421
411,     422,     423
412,     424,     425
413,     426,     427
414,     428,     429
415,     430,     431
416,     432,     433
417,     434,     435
418,     436,     437
419,     438,     439
420,     440,     441
421,     403,     442
422,     405,     443
423,     407,     444
424,     409,     445
425,     411,     446
426,     413,     447
427,     415,     448
428,     417,     449
429,     419,     450
430,     421,     451
431,     423,     452
432,     425,     453
433,     427,     454
434,     429,     455
435,     431,     456
436,     433,     457
437,     435,     458
438,     437,     459
439,     439,     460
440,     441,     461
441,     442,     462
442,     443,     463
443,     444,     464
444,     445,     465
445,     446,     466
446,     447,     467
447,     448,     468
448,     449,     469
449,     450,     470
450,     451,     471
451,     452,     472
452,     453,     473
453,     454,     474
454,     455,     475
455,     456,     476
456,     457,     477
457,     458,     478
458,     459,     479
459,     460,     480
460,     461,     481
461,     462,     482
462,     463,     483
463,     464,     484
464,     465,     485
465,     466,     486
466,     467,     487
467,     468,     488
468,     469,     489
469,     470,     490
470,     471,     491
471,     472,     492
472,     473,     493
473,     474,     494
474,     475,     495
475,     476,     496
476,     477,     497
477,     478,     498
478,     479,     499
479,     480,     500
480,     481,     501
481,     482,     502
482,     483,     503
483,     484,     504
484,     485,     505
485,     486,     506
486,     487,     507
487,     488,     508
488,     489,     509
489,     490,     510
490,     491,     511
491,     492,     512
492,     493,     513
493,     494,     514
494,     495,     515
495,     496,     516
496,     497,     517
497,     498,     518
498,     499,     519
499,     500,     520
500,     501,     521
501,     502,     522
502,     503,     523
503,     504,     524
504,     505,     525
505,     506,     526
506,     507,     527
507,     508,     528
508,     509,     529
509,     510,     530
510,     511,     531
511,     512,     532
512,     513,     533
513,     514,     534
514,     515,     535
515,     516,     536
516,     517,     537
517,     518,     538
518,     519,     539
519,     520,     540
520,     521,     541
521,     522,     542
522,     523,     543
523,     524,     544
524,     525,     545
525,     526,     546
526,     527,     547
527,     528,     548
528,     529,     549
529,     530,     550
530,     531,     551
531,     532,     552
532,     533,     553
533,     534,     554
534,     535,     555
535,     536,     556
536,     537,     557
537,     538,     558
538,     539,     559
539,     540,     560
540,     541,     561
541,     542,     562
542,     543,     563
543,     544,     564
544,     545,     565
545,     546,     566
546,     547,     567
547,     548,     568
548,     549,     569
549,     550,     570
550,     551,     571
551,     552,     572
552,     553,     573
553,     554,     574
554,     555,     575
555,     556,     576
556,     557,     577
557,     558,     578
558,     559,     579
559,     560,     580
560,     561,     581
561,     562,     582
562,     563,     583
563,     564,     584
564,     565,     585
565,     566,     586
566,     567,     587
567,     568,     588
568,     569,     589
569,     570,     590
570,     571,     591
571,     572,     592
572,     573,     593
573,     574,     594
574,     575,     595
575,     576,     596
576,     577,     597
577,     578,     598
578,     579,     599
579,     580,     600
580,     581,     601
581,     582,     602
582,     583,     603
583,     584,     604
584,     585,     605
585,     586,     606
586,     587,     607
587,     588,     608
588,     589,     609
589,     590,     610
590,     591,     611
591,     592,     612
592,     593,     613
593,     594,     614
594,     595,     615
595,     596,     616
596,     597,     617
597,     598,     618
598,     599,     619
599,     600,     620
600,     601,     621
601,     602,     622
602,     603,     623
603,     604,     624
604,     605,     625
605,     606,     626
606,     607,     627
607,     608,     628
608,     609,     629
609,     610,     630
610,     611,     631
611,     612,     632
612,     613,     633
613,     614,     634
614,     615,     635
615,     616,     636
616,     617,     637
617,     618,     638
618,     619,     639
619,     620,     640
620,     621,     641
621,     622,     642
622,     623,     643
623,     624,     644
624,     625,     645
625,     626,     646
626,     627,     647
627,     628,     648
628,     629,     649
629,     630,     650
630,     631,     651
631,     632,     652
632,     633,     653
633,     634,     654
634,     635,     655
635,     636,     656
636,     637,     657
637,     638,     658
638,     639,     659
639,     640,     660
640,     641,     661
641,     642,     662
642,     643,     663
643,     644,     664
644,     645,     665
645,     646,     666
646,     647,     667
647,     648,     668
648,     649,     669
649,     650,     670
650,     651,     671
651,     652,     672
652,     653,     673
653,     654,     674
654,     655,     675
655,     656,     676
656,     657,     677
657,     658,     678
658,     659,     679
659,     660,     680
660,     661,     681
661,     662,     682
662,     663,     683
663,     664,     684
664,     665,     685
665,     666,     686
666,     667,     687
667,     668,     688
668,     669,     689
669,     670,     690
670,     671,     691
671,     672,     692
672,     673,     693
673,     674,     694
674,     675,     695
675,     676,     696
676,     677,     697
677,     678,     698
678,     679,     699
679,     680,     700
680,     681,     701
681,     682,     702
682,     683,     703
683,     684,     704
684,     685,     705
685,     686,     706
686,     687,     707
687,     688,     708
688,     689,     709
689,     690,     710
690,     691,     711
691,     692,     712
692,     693,     713
693,     694,     714
694,     695,     715
695,     696,     716
696,     697,     717
697,     698,     718
698,     699,     719
699,     700,     720
700,     701,     721
701,     702,     722
702,     703,     723
703,     704,     724
704,     705,     725
705,     706,     726
706,     707,     727
707,     708,     728
708,     709,     729
709,     710,     730
710,     711,     731
711,     712,     732
712,     713,     733
713,     714,     734
714,     715,     735
715,     716,     736
716,     717,     737
717,     718,     738
718,     719,     739
719,     720,     740
720,     721,     741
721,     722,     742
722,     723,     743
723,     724,     744
724,     725,     745
725,     726,     746
726,     727,     747
727,     728,     748
728,     729,     749
729,     730,     750
730,     731,     751
731,     732,     752
732,     733,     753
733,     734,     754
734,     735,     755
735,     736,     756
736,     737,     757
737,     738,     758
738,     739,     759
739,     740,     760
740,     741,     761
741,     742,     762
742,     743,     763
743,     744,     764
744,     745,     765
745,     746,     766
746,     747,     767
747,     748,     768
748,     749,     769
749,     750,     770
750,     751,     771
751,     752,     772
752,     753,     773
753,     754,     774
754,     755,     775
755,     756,     776
756,     757,     777
757,     758,     778
758,     759,     779
759,     760,     780
760,     761,     781
761,     762,     782
762,     763,     783
763,     764,     784
764,     765,     785
765,     766,     786
766,     767,     787
767,     768,     788
768,     769,     789
769,     770,     790
770,     771,     791
771,     772,     792
772,     773,     793
773,     774,     794
774,     775,     795
775,     776,     796
776,     777,     797
777,     778,     798
778,     779,     799
779,     780,     800
780,     781,     801
781,     782,     404
782,     783,     406
783,     784,     408
784,     785,     410
785,     786,     412
786,     787,     414
787,     788,     416
788,     789,     418
789,     790,     420
790,     791,     422
791,     792,     424
792,     793,     426
793,     794,     428
794,     795,     430
795,     796,     432
796,     797,     434
797,     798,     436
798,     799,     438
799,     800,     440
800,     801,     802
801,     803,     804
802,     805,     806
803,     807,     808
804,     809,     810
805,     811,     812
806,     813,     814
807,     815,     816
808,     817,     818
809,     819,     820
810,     821,     822
811,     823,     824
812,     825,     826
813,     827,     828
814,     829,     830
815,     831,     832
816,     833,     834
817,     835,     836
818,     837,     838
819,     839,     840
820,     841,     842
821,     804,     843
822,     806,     844
823,     808,     845
824,     810,     846
825,     812,     847
826,     814,     848
827,     816,     849
828,     818,     850
829,     820,     851
830,     822,     852
831,     824,     853
832,     826,     854
833,     828,     855
834,     830,     856
835,     832,     857
836,     834,     858
837,     836,     859
838,     838,     860
839,     840,     861
840,     842,     862
841,     843,     863
842,     844,     864
843,     845,     865
844,     846,     866
845,     847,     867
846,     848,     868
847,     849,     869
848,     850,     870
849,     851,     871
850,     852,     872
851,     853,     873
852,     854,     874
853,     855,     875
854,     856,     876
855,     857,     877
856,     858,     878
857,     859,     879
858,     860,     880
859,     861,     881
860,     862,     882
861,     863,     883
862,     864,     884
863,     865,     885
864,     866,     886
865,     867,     887
866,     868,     888
867,     869,     889
868,     870,     890
869,     871,     891
870,     872,     892
871,     873,     893
872,     874,     894
873,     875,     895
874,     876,     896
875,     877,     897
876,     878,     898
877,     879,     899
878,     880,     900
879,     881,     901
880,     882,     902
881,     883,     903
882,     884,     904
883,     885,     905
884,     886,     906
885,     887,     907
886,     888,     908
887,     889,     909
888,     890,     910
889,     891,     911
890,     892,     912
891,     893,     913
892,     894,     914
893,     895,     915
894,     896,     916
895,     897,     917
896,     898,     918
897,     899,     919
898,     900,     920
899,     901,     921
900,     902,     922
901,     903,     923
902,     904,     924
903,     905,     925
904,     906,     926
905,     907,     927
906,     908,     928
907,     909,     929
908,     910,     930
909,     911,     931
910,     912,     932
911,     913,     933
912,     914,     934
913,     915,     935
914,     916,     936
915,     917,     937
916,     918,     938
917,     919,     939
918,     920,     940
919,     921,     941
920,     922,     942
921,     923,     943
922,     924,     944
923,     925,     945
924,     926,     946
925,     927,     947
926,     928,     948
927,     929,     949
928,     930,     950
929,     931,     951
930,     932,     952
931,     933,     953
932,     934,     954
933,     935,     955
934,     936,     956
935,     937,     957
936,     938,     958
937,     939,     959
938,     940,     960
939,     941,     961
940,     942,     962
941,     943,     963
942,     944,     964
943,     945,     965
944,     946,     966
945,     947,     967
946,     948,     968
947,     949,     969
948,     950,     970
949,     951,     971
950,     952,     972
951,     953,     973
952,     954,     974
953,     955,     975
954,     956,     976
955,     957,     977
956,     958,     978
957,     959,     979
958,     960,     980
959,     961,     981
960,     962,     982
961,     963,     983
962,     964,     984
963,     965,     985
964,     966,     986
965,     967,     987
966,     968,     988
967,     969,     989
968,     970,     990
969,     971,     991
970,     972,     992
971,     973,     993
972,     974,     994
973,     975,     995
974,     976,     996
975,     977,     997
976,     978,     998
977,     979,     999
978,     980,    1000
979,     981,    1001
980,     982,    1002
981,     983,    1003
982,     984,    1004
983,     985,    1005
984,     986,    1006
985,     987,    1007
986,     988,    1008
987,     989,    1009
988,     990,    1010
989,     991,    1011
990,     992,    1012
991,     993,    1013
992,     994,    1014
993,     995,    1015
994,     996,    1016
995,     997,    1017
996,     998,    1018
997,     999,    1019
998,    1000,    1020
999,    1001,    1021
1000,    1002,    1022
1001,    1003,    1023
1002,    1004,    1024
1003,    1005,    1025
1004,    1006,    1026
1005,    1007,    1027
1006,    1008,    1028
1007,    1009,    1029
1008,    1010,    1030
1009,    1011,    1031
1010,    1012,    1032
1011,    1013,    1033
1012,    1014,    1034
1013,    1015,    1035
1014,    1016,    1036
1015,    1017,    1037
1016,    1018,    1038
1017,    1019,    1039
1018,    1020,    1040
1019,    1021,    1041
1020,    1022,    1042
1021,    1023,    1043
1022,    1024,    1044
1023,    1025,    1045
1024,    1026,    1046
1025,    1027,    1047
1026,    1028,    1048
1027,    1029,    1049
1028,    1030,    1050
1029,    1031,    1051
1030,    1032,    1052
1031,    1033,    1053
1032,    1034,    1054
1033,    1035,    1055
1034,    1036,    1056
1035,    1037,    1057
1036,    1038,    1058
1037,    1039,    1059
1038,    1040,    1060
1039,    1041,    1061
1040,    1042,    1062
1041,    1043,    1063
1042,    1044,    1064
1043,    1045,    1065
1044,    1046,    1066
1045,    1047,    1067
1046,    1048,    1068
1047,    1049,    1069
1048,    1050,    1070
1049,    1051,    1071
1050,    1052,    1072
1051,    1053,    1073
1052,    1054,    1074
1053,    1055,    1075
1054,    1056,    1076
1055,    1057,    1077
1056,    1058,    1078
1057,    1059,    1079
1058,    1060,    1080
1059,    1061,    1081
1060,    1062,    1082
1061,    1063,    1083
1062,    1064,    1084
1063,    1065,    1085
1064,    1066,    1086
1065,    1067,    1087
1066,    1068,    1088
1067,    1069,    1089
1068,    1070,    1090
1069,    1071,    1091
1070,    1072,    1092
1071,    1073,    1093
1072,    1074,    1094
1073,    1075,    1095
1074,    1076,    1096
1075,    1077,    1097
1076,    1078,    1098
1077,    1079,    1099
1078,    1080,    1100
1079,    1081,    1101
1080,    1082,    1102
1081,    1083,    1103
1082,    1084,    1104
1083,    1085,    1105
1084,    1086,    1106
1085,    1087,    1107
1086,    1088,    1108
1087,    1089,    1109
1088,    1090,    1110
1089,    1091,    1111
1090,    1092,    1112
1091,    1093,    1113
1092,    1094,    1114
1093,    1095,    1115
1094,    1096,    1116
1095,    1097,    1117
1096,    1098,    1118
1097,    1099,    1119
1098,    1100,    1120
1099,    1101,    1121
1100,    1102,    1122
1101,    1103,    1123
1102,    1104,    1124
1103,    1105,    1125
1104,    1106,    1126
1105,    1107,    1127
1106,    1108,    1128
1107,    1109,    1129
1108,    1110,    1130
1109,    1111,    1131
1110,    1112,    1132
1111,    1113,    1133
1112,    1114,    1134
1113,    1115,    1135
1114,    1116,    1136
1115,    1117,    1137
1116,    1118,    1138
1117,    1119,    1139
1118,    1120,    1140
1119,    1121,    1141
1120,    1122,    1142
1121,    1123,    1143
1122,    1124,    1144
1123,    1125,    1145
1124,    1126,    1146
1125,    1127,    1147
1126,    1128,    1148
1127,    1129,    1149
1128,    1130,    1150
1129,    1131,    1151
1130,    1132,    1152
1131,    1133,    1153
1132,    1134,    1154
1133,    1135,    1155
1134,    1136,    1156
1135,    1137,    1157
1136,    1138,    1158
1137,    1139,    1159
1138,    1140,    1160
1139,    1141,    1161
1140,    1142,    1162
1141,    1143,    1163
1142,    1144,    1164
1143,    1145,    1165
1144,    1146,    1166
1145,    1147,    1167
1146,    1148,    1168
1147,    1149,    1169
1148,    1150,    1170
1149,    1151,    1171
1150,    1152,    1172
1151,    1153,    1173
1152,    1154,    1174
1153,    1155,    1175
1154,    1156,    1176
1155,    1157,    1177
1156,    1158,    1178
1157,    1159,    1179
1158,    1160,    1180
1159,    1161,    1181
1160,    1162,    1182
1161,    1163,    1183
1162,    1164,    1184
1163,    1165,    1185
1164,    1166,    1186
1165,    1167,    1187
1166,    1168,    1188
1167,    1169,    1189
1168,    1170,    1190
1169,    1171,    1191
1170,    1172,    1192
1171,    1173,    1193
1172,    1174,    1194
1173,    1175,    1195
1174,    1176,    1196
1175,    1177,    1197
1176,    1178,    1198
1177,    1179,    1199
1178,    1180,    1200
1179,    1181,    1201
1180,    1182,    1202
1181,    1183,     805
1182,    1184,     807
1183,    1185,     809
1184,    1186,     811
1185,    1187,     813
1186,    1188,     815
1187,    1189,     817
1188,    1190,     819
1189,    1191,     821
1190,    1192,     823
1191,    1193,     825
1192,    1194,     827
1193,    1195,     829
1194,    1196,     831
1195,    1197,     833
1196,    1198,     835
1197,    1199,     837
1198,    1200,     839
1199,    1201,     841
1200,    1202,    1203
1201,    1204,    1205
1202,    1206,    1207
1203,    1208,    1209
1204,    1210,    1211
1205,    1212,    1213
1206,    1214,    1215
1207,    1216,    1217
1208,    1218,    1219
1209,    1220,    1221
1210,    1222,    1223
1211,    1224,    1225
1212,    1226,    1227
1213,    1228,    1229
1214,    1230,    1231
1215,    1232,    1233
1216,    1234,    1235
1217,    1236,    1237
1218,    1238,    1239
1219,    1240,    1241
1220,    1242,    1243
1221,    1205,    1244
1222,    1207,    1245
1223,    1209,    1246
1224,    1211,    1247
1225,    1213,    1248
1226,    1215,    1249
1227,    1217,    1250
1228,    1219,    1251
1229,    1221,    1252
1230,    1223,    1253
1231,    1225,    1254
1232,    1227,    1255
1233,    1229,    1256
1234,    1231,    1257
1235,    1233,    1258
1236,    1235,    1259
1237,    1237,    1260
1238,    1239,    1261
1239,    1241,    1262
1240,    1243,    1263
1241,    1244,    1264
1242,    1245,    1265
1243,    1246,    1266
1244,    1247,    1267
1245,    1248,    1268
1246,    1249,    1269
1247,    1250,    1270
1248,    1251,    1271
1249,    1252,    1272
1250,    1253,    1273
1251,    1254,    1274
1252,    1255,    1275
1253,    1256,    1276
1254,    1257,    1277
1255,    1258,    1278
1256,    1259,    1279
1257,    1260,    1280
1258,    1261,    1281
1259,    1262,    1282
1260,    1263,    1283
1261,    1264,    1284
1262,    1265,    1285
1263,    1266,    1286
1264,    1267,    1287
1265,    1268,    1288
1266,    1269,    1289
1267,    1270,    1290
1268,    1271,    1291
1269,    1272,    1292
1270,    1273,    1293
1271,    1274,    1294
1272,    1275,    1295
1273,    1276,    1296
1274,    1277,    1297
1275,    1278,    1298
1276,    1279,    1299
1277,    1280,    1300
1278,    1281,    1301
1279,    1282,    1302
1280,    1283,    1303
1281,    1284,    1304
1282,    1285,    1305
1283,    1286,    1306
1284,    1287,    1307
1285,    1288,    1308
1286,    1289,    1309
1287,    1290,    1310
1288,    1291,    1311
1289,    1292,    1312
1290,    1293,    1313
1291,    1294,    1314
1292,    1295,    1315
1293,    1296,    1316
1294,    1297,    1317
1295,    1298,    1318
1296,    1299,    1319
1297,    1300,    1320
1298,    1301,    1321
1299,    1302,    1322
1300,    1303,    1323
1301,    1304,    1324
1302,    1305,    1325
1303,    1306,    1326
1304,    1307,    1327
1305,    1308,    1328
1306,    1309,    1329
1307,    1310,    1330
1308,    1311,    1331
1309,    1312,    1332
1310,    1313,    1333
1311,    1314,    1334
1312,    1315,    1335
1313,    1316,    1336
1314,    1317,    1337
1315,    1318,    1338
1316,    1319,    1339
1317,    1320,    1340
1318,    1321,    1341
1319,    1322,    1342
1320,    1323,    1343
1321,    1324,    1344
1322,    1325,    1345
1323,    1326,    1346
1324,    1327,    1347
1325,    1328,    1348
1326,    1329,    1349
1327,    1330,    1350
1328,    1331,    1351
1329,    1332,    1352
1330,    1333,    1353
1331,    1334,    1354
1332,    1335,    1355
1333,    1336,    1356
1334,    1337,    1357
1335,    1338,    1358
1336,    1339,    1359
1337,    1340,    1360
1338,    1341,    1361
1339,    1342,    1362
1340,    1343,    1363
1341,    1344,    1364
1342,    1345,    1365
1343,    1346,    1366
1344,    1347,    1367
1345,    1348,    1368
1346,    1349,    1369
1347,    1350,    1370
1348,    1351,    1371
1349,    1352,    1372
1350,    1353,    1373
1351,    1354,    1374
1352,    1355,    1375
1353,    1356,    1376
1354,    1357,    1377
1355,    1358,    1378
1356,    1359,    1379
1357,    1360,    1380
1358,    1361,    1381
1359,    1362,    1382
1360,    1363,    1383
1361,    1364,    1384
1362,    1365,    1385
1363,    1366,    1386
1364,    1367,    1387
1365,    1368,    1388
1366,    1369,    1389
1367,    1370,    1390
1368,    1371,    1391
1369,    1372,    1392
1370,    1373,    1393
1371,    1374,    1394
1372,    1375,    1395
1373,    1376,    1396
1374,    1377,    1397
1375,    1378,    1398
1376,    1379,    1399
1377,    1380,    1400
1378,    1381,    1401
1379,    1382,    1402
1380,    1383,    1403
1381,    1384,    1404
1382,    1385,    1405
1383,    1386,    1406
1384,    1387,    1407
1385,    1388,    1408
1386,    1389,    1409
1387,    1390,    1410
1388,    1391,    1411
1389,    1392,    1412
1390,    1393,    1413
1391,    1394,    1414
1392,    1395,    1415
1393,    1396,    1416
1394,    1397,    1417
1395,    1398,    1418
1396,    1399,    1419
1397,    1400,    1420
1398,    1401,    1421
1399,    1402,    1422
1400,    1403,    1423
1401,    1404,    1424
1402,    1405,    1425
1403,    1406,    1426
1404,    1407,    1427
1405,    1408,    1428
1406,    1409,    1429
1407,    1410,    1430
1408,    1411,    1431
1409,    1412,    1432
1410,    1413,    1433
1411,    1414,    1434
1412,    1415,    1435
1413,    1416,    1436
1414,    1417,    1437
1415,    1418,    1438
1416,    1419,    1439
1417,    1420,    1440
1418,    1421,    1441
1419,    1422,    1442
1420,    1423,    1443
1421,    1424,    1444
1422,    1425,    1445
1423,    1426,    1446
1424,    1427,    1447
1425,    1428,    1448
1426,    1429,    1449
1427,    1430,    1450
1428,    1431,    1451
1429,    1432,    1452
1430,    1433,    1453
1431,    1434,    1454
1432,    1435,    1455
1433,    1436,    1456
1434,    1437,    1457
1435,    1438,    1458
1436,    1439,    1459
1437,    1440,    1460
1438,    1441,    1461
1439,    1442,    1462
1440,    1443,    1463
1441,    1444,    1464
1442,    1445,    1465
1443,    1446,    1466
1444,    1447,    1467
1445,    1448,    1468
1446,    1449,    1469
1447,    1450,    1470
1448,    1451,    1471
1449,    1452,    1472
1450,    1453,    1473
1451,    1454,    1474
1452,    1455,    1475
1453,    1456,    1476
1454,    1457,    1477
1455,    1458,    1478
1456,    1459,    1479
1457,    1460,    1480
1458,    1461,    1481
1459,    1462,    1482
1460,    1463,    1483
1461,    1464,    1484
1462,    1465,    1485
1463,    1466,    1486
1464,    1467,    1487
1465,    1468,    1488
1466,    1469,    1489
1467,    1470,    1490
1468,    1471,    1491
1469,    1472,    1492
1470,    1473,    1493
1471,    1474,    1494
1472,    1475,    1495
1473,    1476,    1496
1474,    1477,    1497
1475,    1478,    1498
1476,    1479,    1499
1477,    1480,    1500
1478,    1481,    1501
1479,    1482,    1502
1480,    1483,    1503
1481,    1484,    1504
1482,    1485,    1505
1483,    1486,    1506
1484,    1487,    1507
1485,    1488,    1508
1486,    1489,    1509
1487,    1490,    1510
1488,    1491,    1511
1489,    1492,    1512
1490,    1493,    1513
1491,    1494,    1514
1492,    1495,    1515
1493,    1496,    1516
1494,    1497,    1517
1495,    1498,    1518
1496,    1499,    1519
1497,    1500,    1520
1498,    1501,    1521
1499,    1502,    1522
1500,    1503,    1523
1501,    1504,    1524
1502,    1505,    1525
1503,    1506,    1526
1504,    1507,    1527
1505,    1508,    1528
1506,    1509,    1529
1507,    1510,    1530
1508,    1511,    1531
1509,    1512,    1532
1510,    1513,    1533
1511,    1514,    1534
1512,    1515,    1535
1513,    1516,    1536
1514,    1517,    1537
1515,    1518,    1538
1516,    1519,    1539
1517,    1520,    1540
1518,    1521,    1541
1519,    1522,    1542
1520,    1523,    1543
1521,    1524,    1544
1522,    1525,    1545
1523,    1526,    1546
1524,    1527,    1547
1525,    1528,    1548
1526,    1529,    1549
1527,    1530,    1550
1528,    1531,    1551
1529,    1532,    1552
1530,    1533,    1553
1531,    1534,    1554
1532,    1535,    1555
1533,    1536,    1556
1534,    1537,    1557
1535,    1538,    1558
1536,    1539,    1559
1537,    1540,    1560
1538,    1541,    1561
1539,    1542,    1562
1540,    1543,    1563
1541,    1544,    1564
1542,    1545,    1565
1543,    1546,    1566
1544,    1547,    1567
1545,    1548,    1568
1546,    1549,    1569
1547,    1550,    1570
1548,    1551,    1571
1549,    1552,    1572
1550,    1553,    1573
1551,    1554,    1574
1552,    1555,    1575
1553,    1556,    1576
1554,    1557,    1577
1555,    1558,    1578
1556,    1559,    1579
1557,    1560,    1580
1558,    1561,    1581
1559,    1562,    1582
1560,    1563,    1583
1561,    1564,    1584
1562,    1565,    1585
1563,    1566,    1586
1564,    1567,    1587
1565,    1568,    1588
1566,    1569,    1589
1567,    1570,    1590
1568,    1571,    1591
1569,    1572,    1592
1570,    1573,    1593
1571,    1574,    1594
1572,    1575,    1595
1573,    1576,    1596
1574,    1577,    1597
1575,    1578,    1598
1576,    1579,    1599
1577,    1580,    1600
1578,    1581,    1601
1579,    1582,    1602
1580,    1583,    1603
1581,    1584,    1206
1582,    1585,    1208
1583,    1586,    1210
1584,    1587,    1212
1585,    1588,    1214
1586,    1589,    1216
1587,    1590,    1218
1588,    1591,    1220
1589,    1592,    1222
1590,    1593,    1224
1591,    1594,    1226
1592,    1595,    1228
1593,    1596,    1230
1594,    1597,    1232
1595,    1598,    1234
1596,    1599,    1236
1597,    1600,    1238
1598,    1601,    1240
1599,    1602,    1242
1600,    1603,    1604
1601,    1605,    1606
1602,    1607,    1608
1603,    1609,    1610
1604,    1611,    1612
1605,    1613,    1614
1606,    1615,    1616
1607,    1617,    1618
1608,    1619,    1620
1609,    1621,    1622
1610,    1623,    1624
1611,    1625,    1626
1612,    1627,    1628
1613,    1629,    1630
1614,    1631,    1632
1615,    1633,    1634
1616,    1635,    1636
1617,    1637,    1638
1618,    1639,    1640
1619,    1641,    1642
1620,    1643,    1644
1621,    1606,    1645
1622,    1608,    1646
1623,    1610,    1647
1624,    1612,    1648
1625,    1614,    1649
1626,    1616,    1650
1627,    1618,    1651
1628,    1620,    1652
1629,    1622,    1653
1630,    1624,    1654
1631,    1626,    1655
1632,    1628,    1656
1633,    1630,    1657
1634,    1632,    1658
1635,    1634,    1659
1636,    1636,    1660
1637,    1638,    1661
1638,    1640,    1662
1639,    1642,    1663
1640,    1644,    1664
1641,    1645,    1665
1642,    1646,    1666
1643,    1647,    1667
1644,    1648,    1668
1645,    1649,    1669
1646,    1650,    1670
1647,    1651,    1671
1648,    1652,    1672
1649,    1653,    1673
1650,    1654,    1674
1651,    1655,    1675
1652,    1656,    1676
1653,    1657,    1677
1654,    1658,    1678
1655,    1659,    1679
1656,    1660,    1680
1657,    1661,    1681
1658,    1662,    1682
1659,    1663,    1683
1660,    1664,    1684
1661,    1665,    1685
1662,    1666,    1686
1663,    1667,    1687
1664,    1668,    1688
1665,    1669,    1689
1666,    1670,    1690
1667,    1671,    1691
1668,    1672,    1692
1669,    1673,    1693
1670,    1674,    1694
1671,    1675,    1695
1672,    1676,    1696
1673,    1677,    1697
1674,    1678,    1698
1675,    1679,    1699
1676,    1680,    1700
1677,    1681,    1701
1678,    1682,    1702
1679,    1683,    1703
1680,    1684,    1704
1681,    1685,    1705
1682,    1686,    1706
1683,    1687,    1707
1684,    1688,    1708
1685,    1689,    1709
1686,    1690,    1710
1687,    1691,    1711
1688,    1692,    1712
1689,    1693,    1713
1690,    1694,    1714
1691,    1695,    1715
1692,    1696,    1716
1693,    1697,    1717
1694,    1698,    1718
1695,    1699,    1719
1696,    1700,    1720
1697,    1701,    1721
1698,    1702,    1722
1699,    1703,    1723
1700,    1704,    1724
1701,    1705,    1725
1702,    1706,    1726
1703,    1707,    1727
1704,    1708,    1728
1705,    1709,    1729
1706,    1710,    1730
1707,    1711,    1731
1708,    1712,    1732
1709,    1713,    1733
1710,    1714,    1734
1711,    1715,    1735
1712,    1716,    1736
1713,    1717,    1737
1714,    1718,    1738
1715,    1719,    1739
1716,    1720,    1740
1717,    1721,    1741
1718,    1722,    1742
1719,    1723,    1743
1720,    1724,    1744
1721,    1725,    1745
1722,    1726,    1746
1723,    1727,    1747
1724,    1728,    1748
1725,    1729,    1749
1726,    1730,    1750
1727,    1731,    1751
1728,    1732,    1752
1729,    1733,    1753
1730,    1734,    1754
1731,    1735,    1755
1732,    1736,    1756
1733,    1737,    1757
1734,    1738,    1758
1735,    1739,    1759
1736,    1740,    1760
1737,    1741,    1761
1738,    1742,    1762
1739,    1743,    1763
1740,    1744,    1764
1741,    1745,    1765
1742,    1746,    1766
1743,    1747,    1767
1744,    1748,    1768
1745,    1749,    1769
1746,    1750,    1770
1747,    1751,    1771
1748,    1752,    1772
1749,    1753,    1773
1750,    1754,    1774
1751,    1755,    1775
1752,    1756,    1776
1753,    1757,    1777
1754,    1758,    1778
1755,    1759,    1779
1756,    1760,    1780
1757,    1761,    1781
1758,    1762,    1782
1759,    1763,    1783
1760,    1764,    1784
1761,    1765,    1785
1762,    1766,    1786
1763,    1767,    1787
1764,    1768,    1788
1765,    1769,    1789
1766,    1770,    1790
1767,    1771,    1791
1768,    1772,    1792
1769,    1773,    1793
1770,    1774,    1794
1771,    1775,    1795
1772,    1776,    1796
1773,    1777,    1797
1774,    1778,    1798
1775,    1779,    1799
1776,    1780,    1800
1777,    1781,    1801
1778,    1782,    1802
1779,    1783,    1803
1780,    1784,    1804
1781,    1785,    1805
1782,    1786,    1806
1783,    1787,    1807
1784,    1788,    1808
1785,    1789,    1809
1786,    1790,    1810
1787,    1791,    1811
1788,    1792,    1812
1789,    1793,    1813
1790,    1794,    1814
1791,    1795,    1815
1792,    1796,    1816
1793,    1797,    1817
1794,    1798,    1818
1795,    1799,    1819
1796,    1800,    1820
1797,    1801,    1821
1798,    1802,    1822
1799,    1803,    1823
1800,    1804,    1824
1801,    1805,    1825
1802,    1806,    1826
1803,    1807,    1827
1804,    1808,    1828
1805,    1809,    1829
1806,    1810,    1830
1807,    1811,    1831
1808,    1812,    1832
1809,    1813,    1833
1810,    1814,    1834
1811,    1815,    1835
1812,    1816,    1836
1813,    1817,    1837
1814,    1818,    1838
1815,    1819,    1839
1816,    1820,    1840
1817,    1821,    1841
1818,    1822,    1842
1819,    1823,    1843
1820,    1824,    1844
1821,    1825,    1845
1822,    1826,    1846
1823,    1827,    1847
1824,    1828,    1848
1825,    1829,    1849
1826,    1830,    1850
1827,    1831,    1851
1828,    1832,    1852
1829,    1833,    1853
1830,    1834,    1854
1831,    1835,    1855
1832,    1836,    1856
1833,    1837,    1857
1834,    1838,    1858
1835,    1839,    1859
1836,    1840,    1860
1837,    1841,    1861
1838,    1842,    1862
1839,    1843,    1863
1840,    1844,    1864
1841,    1845,    1865
1842,    1846,    1866
1843,    1847,    1867
1844,    1848,    1868
1845,    1849,    1869
1846,    1850,    1870
1847,    1851,    1871
1848,    1852,    1872
1849,    1853,    1873
1850,    1854,    1874
1851,    1855,    1875
1852,    1856,    1876
1853,    1857,    1877
1854,    1858,    1878
1855,    1859,    1879
1856,    1860,    1880
1857,    1861,    1881
1858,    1862,    1882
1859,    1863,    1883
1860,    1864,    1884
1861,    1865,    1885
1862,    1866,    1886
1863,    1867,    1887
1864,    1868,    1888
1865,    1869,    1889
1866,    1870,    1890
1867,    1871,    1891
1868,    1872,    1892
1869,    1873,    1893
1870,    1874,    1894
1871,    1875,    1895
1872,    1876,    1896
1873,    1877,    1897
1874,    1878,    1898
1875,    1879,    1899
1876,    1880,    1900
1877,    1881,    1901
1878,    1882,    1902
1879,    1883,    1903
1880,    1884,    1904
1881,    1885,    1905
1882,    1886,    1906
1883,    1887,    1907
1884,    1888,    1908
1885,    1889,    1909
1886,    1890,    1910
1887,    1891,    1911
1888,    1892,    1912
1889,    1893,    1913
1890,    1894,    1914
1891,    1895,    1915
1892,    1896,    1916
1893,    1897,    1917
1894,    1898,    1918
1895,    1899,    1919
1896,    1900,    1920
1897,    1901,    1921
1898,    1902,    1922
1899,    1903,    1923
1900,    1904,    1924
1901,    1905,    1925
1902,    1906,    1926
1903,    1907,    1927
1904,    1908,    1928
1905,    1909,    1929
1906,    1910,    1930
1907,    1911,    1931
1908,    1912,    1932
1909,    1913,    1933
1910,    1914,    1934
1911,    1915,    1935
1912,    1916,    1936
1913,    1917,    1937
1914,    1918,    1938
1915,    1919,    1939
1916,    1920,    1940
1917,    1921,    1941
1918,    1922,    1942
1919,    1923,    1943
1920,    1924,    1944
1921,    1925,    1945
1922,    1926,    1946
1923,    1927,    1947
1924,    1928,    1948
1925,    1929,    1949
1926,    1930,    1950
1927,    1931,    1951
1928,    1932,    1952
1929,    1933,    1953
1930,    1934,    1954
1931,    1935,    1955
1932,    1936,    1956
1933,    1937,    1957
1934,    1938,    1958
1935,    1939,    1959
1936,    1940,    1960
1937,    1941,    1961
1938,    1942,    1962
1939,    1943,    1963
1940,    1944,    1964
1941,    1945,    1965
1942,    1946,    1966
1943,    1947,    1967
1944,    1948,    1968
1945,    1949,    1969
1946,    1950,    1970
1947,    1951,    1971
1948,    1952,    1972
1949,    1953,    1973
1950,    1954,    1974
1951,    1955,    1975
1952,    1956,    1976
1953,    1957,    1977
1954,    1958,    1978
1955,    1959,    1979
1956,    1960,    1980
1957,    1961,    1981
1958,    1962,    1982
1959,    1963,    1983
1960,    1964,    1984
1961,    1965,    1985
1962,    1966,    1986
1963,    1967,    1987
1964,    1968,    1988
1965,    1969,    1989
1966,    1970,    1990
1967,    1971,    1991
1968,    1972,    1992
1969,    1973,    1993
1970,    1974,    1994
1971,    1975,    1995
1972,    1976,    1996
1973,    1977,    1997
1974,    1978,    1998
1975,    1979,    1999
1976,    1980,    2000
1977,    1981,    2001
1978,    1982,    2002
1979,    1983,    2003
1980,    1984,    2004
1981,    1985,    1607
1982,    1986,    1609
1983,    1987,    1611
1984,    1988,    1613
1985,    1989,    1615
1986,    1990,    1617
1987,    1991,    1619
1988,    1992,    1621
1989,    1993,    1623
1990,    1994,    1625
1991,    1995,    1627
1992,    1996,    1629
1993,    1997,    1631
1994,    1998,    1633
1995,    1999,    1635
1996,    2000,    1637
1997,    2001,    1639
1998,    2002,    1641
1999,    2003,    1643
2000,    2004,    2005
2001,       1,    2006
2002,       3,    2007
2003,       5,    2008
2004,       7,    2009
2005,       9,    2010
2006,      11,    2011
2007,      13,    2012
2008,      15,    2013
2009,      17,    2014
2010,      19,    2015
2011,      21,    2016
2012,      23,    2017
2013,      25,    2018
2014,      27,    2019
2015,      29,    2020
2016,      31,    2021
2017,      33,    2022
2018,      35,    2023
2019,      37,    2024
2020,      39,    2025
2021,       2,    2026
2022,       4,    2027
2023,       6,    2028
2024,       8,    2029
2025,      10,    2030
2026,      12,    2031
2027,      14,    2032
2028,      16,    2033
2029,      18,    2034
2030,      20,    2035
2031,      22,    2036
2032,      24,    2037
2033,      26,    2038
2034,      28,    2039
2035,      30,    2040
2036,      32,    2041
2037,      34,    2042
2038,      36,    2043
2039,      38,    2044
2040,      40,    2045
2041,      41,    2046
2042,      42,    2047
2043,      43,    2048
2044,      44,    2049
2045,      45,    2050
2046,      46,    2051
2047,      47,    2052
2048,      48,    2053
2049,      49,    2054
2050,      50,    2055
2051,      51,    2056
2052,      52,    2057
2053,      53,    2058
2054,      54,    2059
2055,      55,    2060
2056,      56,    2061
2057,      57,    2062
2058,      58,    2063
2059,      59,    2064
2060,      60,    2065
2061,      61,    2066
2062,      62,    2067
2063,      63,    2068
2064,      64,    2069
2065,      65,    2070
2066,      66,    2071
2067,      67,    2072
2068,      68,    2073
2069,      69,    2074
2070,      70,    2075
2071,      71,    2076
2072,      72,    2077
2073,      73,    2078
2074,      74,    2079
2075,      75,    2080
2076,      76,    2081
2077,      77,    2082
2078,      78,    2083
2079,      79,    2084
2080,      80,    2085
2081,      81,    2086
2082,      82,    2087
2083,      83,    2088
2084,      84,    2089
2085,      85,    2090
2086,      86,    2091
2087,      87,    2092
2088,      88,    2093
2089,      89,    2094
2090,      90,    2095
2091,      91,    2096
2092,      92,    2097
2093,      93,    2098
2094,      94,    2099
2095,      95,    2100
2096,      96,    2101
2097,      97,    2102
2098,      98,    2103
2099,      99,    2104
2100,     100,    2105
2101,     101,    2106
2102,     102,    2107
2103,     103,    2108
2104,     104,    2109
2105,     105,    2110
2106,     106,    2111
2107,     107,    2112
2108,     108,    2113
2109,     109,    2114
2110,     110,    2115
2111,     111,    2116
2112,     112,    2117
2113,     113,    2118
2114,     114,    2119
2115,     115,    2120
2116,     116,    2121
2117,     117,    2122
2118,     118,    2123
2119,     119,    2124
2120,     120,    2125
2121,     121,    2126
2122,     122,    2127
2123,     123,    2128
2124,     124,    2129
2125,     125,    2130
2126,     126,    2131
2127,     127,    2132
2128,     128,    2133
2129,     129,    2134
2130,     130,    2135
2131,     131,    2136
2132,     132,    2137
2133,     133,    2138
2134,     134,    2139
2135,     135,    2140
2136,     136,    2141
2137,     137,    2142
2138,     138,    2143
2139,     139,    2144
2140,     140,    2145
2141,     141,    2146
2142,     142,    2147
2143,     143,    2148
2144,     144,    2149
2145,     145,    2150
2146,     146,    2151
2147,     147,    2152
2148,     148,    2153
2149,     149,    2154
2150,     150,    2155
2151,     151,    2156
2152,     152,    2157
2153,     153,    2158
2154,     154,    2159
2155,     155,    2160
2156,     156,    2161
2157,     157,    2162
2158,     158,    2163
2159,     159,    2164
2160,     160,    2165
2161,     161,    2166
2162,     162,    2167
2163,     163,    2168
2164,     164,    2169
2165,     165,    2170
2166,     166,    2171
2167,     167,    2172
2168,     168,    2173
2169,     169,    2174
2170,     170,    2175
2171,     171,    2176
2172,     172,    2177
2173,     173,    2178
2174,     174,    2179
2175,     175,    2180
2176,     176,    2181
2177,     177,    2182
2178,     178,    2183
2179,     179,    2184
2180,     180,    2185
2181,     181,    2186
2182,     182,    2187
2183,     183,    2188
2184,     184,    2189
2185,     185,    2190
2186,     186,    2191
2187,     187,    2192
2188,     188,    2193
2189,     189,    2194
2190,     190,    2195
2191,     191,    2196
2192,     192,    2197
2193,     193,    2198
2194,     194,    2199
2195,     195,    2200
2196,     196,    2201
2197,     197,    2202
2198,     198,    2203
2199,     199,    2204
2200,     200,    2205
2201,     201,    2206
2202,     202,    2207
2203,     203,    2208
2204,     204,    2209
2205,     205,    2210
2206,     206,    2211
2207,     207,    2212
2208,     208,    2213
2209,     209,    2214
2210,     210,    2215
2211,     211,    2216
2212,     212,    2217
2213,     213,    2218
2214,     214,    2219
2215,     215,    2220
2216,     216,    2221
2217,     217,    2222
2218,     218,    2223
2219,     219,    2224
2220,     220,    2225
2221,     221,    2226
2222,     222,    2227
2223,     223,    2228
2224,     224,    2229
2225,     225,    2230
2226,     226,    2231
2227,     227,    2232
2228,     228,    2233
2229,     229,    2234
2230,     230,    2235
2231,     231,    2236
2232,     232,    2237
2233,     233,    2238
2234,     234,    2239
2235,     235,    2240
2236,     236,    2241
2237,     237,    2242
2238,     238,    2243
2239,     239,    2244
2240,     240,    2245
2241,     241,    2246
2242,     242,    2247
2243,     243,    2248
2244,     244,    2249
2245,     245,    2250
2246,     246,    2251
2247,     247,    2252
2248,     248,    2253
2249,     249,    2254
2250,     250,    2255
2251,     251,    2256
2252,     252,    2257
2253,     253,    2258
2254,     254,    2259
2255,     255,    2260
2256,     256,    2261
2257,     257,    2262
2258,     258,    2263
2259,     259,    2264
2260,     260,    2265
2261,     261,    2266
2262,     262,    2267
2263,     263,    2268
2264,     264,    2269
2265,     265,    2270
2266,     266,    2271
2267,     267,    2272
2268,     268,    2273
2269,     269,    2274
2270,     270,    2275
2271,     271,    2276
2272,     272,    2277
2273,     273,    2278
2274,     274,    2279
2275,     275,    2280
2276,     276,    2281
2277,     277,    2282
2278,     278,    2283
2279,     279,    2284
2280,     280,    2285
2281,     281,    2286
2282,     282,    2287
2283,     283,    2288
2284,     284,    2289
2285,     285,    2290
2286,     286,    2291
2287,     287,    2292
2288,     288,    2293
2289,     289,    2294
2290,     290,    2295
2291,     291,    2296
2292,     292,    2297
2293,     293,    2298
2294,     294,    2299
2295,     295,    2300
2296,     296,    2301
2297,     297,    2302
2298,     298,    2303
2299,     299,    2304
2300,     300,    2305
2301,     301,    2306
2302,     302,    2307
2303,     303,    2308
2304,     304,    2309
2305,     305,    2310
2306,     306,    2311
2307,     307,    2312
2308,     308,    2313
2309,     309,    2314
2310,     310,    2315
2311,     311,    2316
2312,     312,    2317
2313,     313,    2318
2314,     314,    2319
2315,     315,    2320
2316,     316,    2321
2317,     317,    2322
2318,     318,    2323
2319,     319,    2324
2320,     320,    2325
2321,     321,    2326
2322,     322,    2327
2323,     323,    2328
2324,     324,    2329
2325,     325,    2330
2326,     326,    2331
2327,     327,    2332
2328,     328,    2333
2329,     329,    2334
2330,     330,    2335
2331,     331,    2336
2332,     332,    2337
2333,     333,    2338
2334,     334,    2339
2335,     335,    2340
2336,     336,    2341
2337,     337,    2342
2338,     338,    2343
2339,     339,    2344
2340,     340,    2345
2341,     341,    2346
2342,     342,    2347
2343,     343,    2348
2344,     344,    2349
2345,     345,    2350
2346,     346,    2351
2347,     347,    2352
2348,     348,    2353
2349,     349,    2354
2350,     350,    2355
2351,     351,    2356
2352,     352,    2357
2353,     353,    2358
2354,     354,    2359
2355,     355,    2360
2356,     356,    2361
2357,     357,    2362
2358,     358,    2363
2359,     359,    2364
2360,     360,    2365
2361,     361,    2366
2362,     362,    2367
2363,     363,    2368
2364,     364,    2369
2365,     365,    2370
2366,     366,    2371
2367,     367,    2372
2368,     368,    2373
2369,     369,    2374
2370,     370,    2375
2371,     371,    2376
2372,     372,    2377
2373,     373,    2378
2374,     374,    2379
2375,     375,    2380
2376,     376,    2381
2377,     377,    2382
2378,     378,    2383
2379,     379,    2384
2380,     380,    2385
2381,     381,    2386
2382,     382,    2387
2383,     383,    2388
2384,     384,    2389
2385,     385,    2390
2386,     386,    2391
2387,     387,    2392
2388,     388,    2393
2389,     389,    2394
2390,     390,    2395
2391,     391,    2396
2392,     392,    2397
2393,     393,    2398
2394,     394,    2399
2395,     395,    2400
2396,     396,    2401
2397,     397,    2402
2398,     398,    2403
2399,     399,    2404
2400,     400,    2405
2401,     401,    2406
2402,     402,    2407
2403,     404,    2408
2404,     406,    2409
2405,     408,    2410
2406,     410,    2411
2407,     412,    2412
2408,     414,    2413
2409,     416,    2414
2410,     418,    2415
2411,     420,    2416
2412,     422,    2417
2413,     424,    2418
2414,     426,    2419
2415,     428,    2420
2416,     430,    2421
2417,     432,    2422
2418,     434,    2423
2419,     436,    2424
2420,     438,    2425
2421,     440,    2426
2422,     403,    2427
2423,     405,    2428
2424,     407,    2429
2425,     409,    2430
2426,     411,    2431
2427,     413,    2432
2428,     415,    2433
2429,     417,    2434
2430,     419,    2435
2431,     421,    2436
2432,     423,    2437
2433,     425,    2438
2434,     427,    2439
2435,     429,    2440
2436,     431,    2441
2437,     433,    2442
2438,     435,    2443
2439,     437,    2444
2440,     439,    2445
2441,     441,    2446
2442,     442,    2447
2443,     443,    2448
2444,     444,    2449
2445,     445,    2450
2446,     446,    2451
2447,     447,    2452
2448,     448,    2453
2449,     449,    2454
2450,     450,    2455
2451,     451,    2456
2452,     452,    2457
2453,     453,    2458
2454,     454,    2459
2455,     455,    2460
2456,     456,    2461
2457,     457,    2462
2458,     458,    2463
2459,     459,    2464
2460,     460,    2465
2461,     461,    2466
2462,     462,    2467
2463,     463,    2468
2464,     464,    2469
2465,     465,    2470
2466,     466,    2471
2467,     467,    2472
2468,     468,    2473
2469,     469,    2474
2470,     470,    2475
2471,     471,    2476
2472,     472,    2477
2473,     473,    2478
2474,     474,    2479
2475,     475,    2480
2476,     476,    2481
2477,     477,    2482
2478,     478,    2483
2479,     479,    2484
2480,     480,    2485
2481,     481,    2486
2482,     482,    2487
2483,     483,    2488
2484,     484,    2489
2485,     485,    2490
2486,     486,    2491
2487,     487,    2492
2488,     488,    2493
2489,     489,    2494
2490,     490,    2495
2491,     491,    2496
2492,     492,    2497
2493,     493,    2498
2494,     494,    2499
2495,     495,    2500
2496,     496,    2501
2497,     497,    2502
2498,     498,    2503
2499,     499,    2504
2500,     500,    2505
2501,     501,    2506
2502,     502,    2507
2503,     503,    2508
2504,     504,    2509
2505,     505,    2510
2506,     506,    2511
2507,     507,    2512
2508,     508,    2513
2509,     509,    2514
2510,     510,    2515
2511,     511,    2516
2512,     512,    2517
2513,     513,    2518
2514,     514,    2519
2515,     515,    2520
2516,     516,    2521
2517,     517,    2522
2518,     518,    2523
2519,     519,    2524
2520,     520,    2525
2521,     521,    2526
2522,     522,    2527
2523,     523,    2528
2524,     524,    2529
2525,     525,    2530
2526,     526,    2531
2527,     527,    2532
2528,     528,    2533
2529,     529,    2534
2530,     530,    2535
2531,     531,    2536
2532,     532,    2537
2533,     533,    2538
2534,     534,    2539
2535,     535,    2540
2536,     536,    2541
2537,     537,    2542
2538,     538,    2543
2539,     539,    2544
2540,     540,    2545
2541,     541,    2546
2542,     542,    2547
2543,     543,    2548
2544,     544,    2549
2545,     545,    2550
2546,     546,    2551
2547,     547,    2552
2548,     548,    2553
2549,     549,    2554
2550,     550,    2555
2551,     551,    2556
2552,     552,    2557
2553,     553,    2558
2554,     554,    2559
2555,     555,    2560
2556,     556,    2561
2557,     557,    2562
2558,     558,    2563
2559,     559,    2564
2560,     560,    2565
2561,     561,    2566
2562,     562,    2567
2563,     563,    2568
2564,     564,    2569
2565,     565,    2570
2566,     566,    2571
2567,     567,    2572
2568,     568,    2573
2569,     569,    2574
2570,     570,    2575
2571,     571,    2576
2572,     572,    2577
2573,     573,    2578
2574,     574,    2579
2575,     575,    2580
2576,     576,    2581
2577,     577,    2582
2578,     578,    2583
2579,     579,    2584
2580,     580,    2585
2581,     581,    2586
2582,     582,    2587
2583,     583,    2588
2584,     584,    2589
2585,     585,    2590
2586,     586,    2591
2587,     587,    2592
2588,     588,    2593
2589,     589,    2594
2590,     590,    2595
2591,     591,    2596
2592,     592,    2597
2593,     593,    2598
2594,     594,    2599
2595,     595,    2600
2596,     596,    2601
2597,     597,    2602
2598,     598,    2603
2599,     599,    2604
2600,     600,    2605
2601,     601,    2606
2602,     602,    2607
2603,     603,    2608
2604,     604,    2609
2605,     605,    2610
2606,     606,    2611
2607,     607,    2612
2608,     608,    2613
2609,     609,    2614
2610,     610,    2615
2611,     611,    2616
2612,     612,    2617
2613,     613,    2618
2614,     614,    2619
2615,     615,    2620
2616,     616,    2621
2617,     617,    2622
2618,     618,    2623
2619,     619,    2624
2620,     620,    2625
2621,     621,    2626
2622,     622,    2627
2623,     623,    2628
2624,     624,    2629
2625,     625,    2630
2626,     626,    2631
2627,     627,    2632
2628,     628,    2633
2629,     629,    2634
2630,     630,    2635
2631,     631,    2636
2632,     632,    2637
2633,     633,    2638
2634,     634,    2639
2635,     635,    2640
2636,     636,    2641
2637,     637,    2642
2638,     638,    2643
2639,     639,    2644
2640,     640,    2645
2641,     641,    2646
2642,     642,    2647
2643,     643,    2648
2644,     644,    2649
2645,     645,    2650
2646,     646,    2651
2647,     647,    2652
2648,     648,    2653
2649,     649,    2654
2650,     650,    2655
2651,     651,    2656
2652,     652,    2657
2653,     653,    2658
2654,     654,    2659
2655,     655,    2660
2656,     656,    2661
2657,     657,    2662
2658,     658,    2663
2659,     659,    2664
2660,     660,    2665
2661,     661,    2666
2662,     662,    2667
2663,     663,    2668
2664,     664,    2669
2665,     665,    2670
2666,     666,    2671
2667,     667,    2672
2668,     668,    2673
2669,     669,    2674
2670,     670,    2675
2671,     671,    2676
2672,     672,    2677
2673,     673,    2678
2674,     674,    2679
2675,     675,    2680
2676,     676,    2681
2677,     677,    2682
2678,     678,    2683
2679,     679,    2684
2680,     680,    2685
2681,     681,    2686
2682,     682,    2687
2683,     683,    2688
2684,     684,    2689
2685,     685,    2690
2686,     686,    2691
2687,     687,    2692
2688,     688,    2693
2689,     689,    2694
2690,     690,    2695
2691,     691,    2696
2692,     692,    2697
2693,     693,    2698
2694,     694,    2699
2695,     695,    2700
2696,     696,    2701
2697,     697,    2702
2698,     698,    2703
2699,     699,    2704
2700,     700,    2705
2701,     701,    2706
2702,     702,    2707
2703,     703,    2708
2704,     704,    2709
2705,     705,    2710
2706,     706,    2711
2707,     707,    2712
2708,     708,    2713
2709,     709,    2714
2710,     710,    2715
2711,     711,    2716
2712,     712,    2717
2713,     713,    2718
2714,     714,    2719
2715,     715,    2720
2716,     716,    2721
2717,     717,    2722
2718,     718,    2723
2719,     719,    2724
2720,     720,    2725
2721,     721,    2726
2722,     722,    2727
2723,     723,    2728
2724,     724,    2729
2725,     725,    2730
2726,     726,    2731
2727,     727,    2732
2728,     728,    2733
2729,     729,    2734
2730,     730,    2735
2731,     731,    2736
2732,     732,    2737
2733,     733,    2738
2734,     734,    2739
2735,     735,    2740
2736,     736,    2741
2737,     737,    2742
2738,     738,    2743
2739,     739,    2744
2740,     740,    2745
2741,     741,    2746
2742,     742,    2747
2743,     743,    2748
2744,     744,    2749
2745,     745,    2750
2746,     746,    2751
2747,     747,    2752
2748,     748,    2753
2749,     749,    2754
2750,     750,    2755
2751,     751,    2756
2752,     752,    2757
2753,     753,    2758
2754,     754,    2759
2755,     755,    2760
2756,     756,    2761
2757,     757,    2762
2758,     758,    2763
2759,     759,    2764
2760,     760,    2765
2761,     761,    2766
2762,     762,    2767
2763,     763,    2768
2764,     764,    2769
2765,     765,    2770
2766,     766,    2771
2767,     767,    2772
2768,     768,    2773
2769,     769,    2774
2770,     770,    2775
2771,     771,    2776
2772,     772,    2777
2773,     773,    2778
2774,     774,    2779
2775,     775,    2780
2776,     776,    2781
2777,     777,    2782
2778,     778,    2783
2779,     779,    2784
2780,     780,    2785
2781,     781,    2786
2782,     782,    2787
2783,     783,    2788
2784,     784,    2789
2785,     785,    2790
2786,     786,    2791
2787,     787,    2792
2788,     788,    2793
2789,     789,    2794
2790,     790,    2795
2791,     791,    2796
2792,     792,    2797
2793,     793,    2798
2794,     794,    2799
2795,     795,    2800
2796,     796,    2801
2797,     797,    2802
2798,     798,    2803
2799,     799,    2804
2800,     800,    2805
2801,     801,    2806
2802,     802,    2807
2803,     803,    2808
2804,     805,    2809
2805,     807,    2810
2806,     809,    2811
2807,     811,    2812
2808,     813,    2813
2809,     815,    2814
2810,     817,    2815
2811,     819,    2816
2812,     821,    2817
2813,     823,    2818
2814,     825,    2819
2815,     827,    2820
2816,     829,    2821
2817,     831,    2822
2818,     833,    2823
2819,     835,    2824
2820,     837,    2825
2821,     839,    2826
2822,     841,    2827
2823,     804,    2828
2824,     806,    2829
2825,     808,    2830
2826,     810,    2831
2827,     812,    2832
2828,     814,    2833
2829,     816,    2834
2830,     818,    2835
2831,     820,    2836
2832,     822,    2837
2833,     824,    2838
2834,     826,    2839
2835,     828,    2840
2836,     830,    2841
2837,     832,    2842
2838,     834,    2843
2839,     836,    2844
2840,     838,    2845
2841,     840,    2846
2842,     842,    2847
2843,     843,    2848
2844,     844,    2849
2845,     845,    2850
2846,     846,    2851
2847,     847,    2852
2848,     848,    2853
2849,     849,    2854
2850,     850,    2855
2851,     851,    2856
2852,     852,    2857
2853,     853,    2858
2854,     854,    2859
2855,     855,    2860
2856,     856,    2861
2857,     857,    2862
2858,     858,    2863
2859,     859,    2864
2860,     860,    2865
2861,     861,    2866
2862,     862,    2867
2863,     863,    2868
2864,     864,    2869
2865,     865,    2870
2866,     866,    2871
2867,     867,    2872
2868,     868,    2873
2869,     869,    2874
2870,     870,    2875
2871,     871,    2876
2872,     872,    2877
2873,     873,    2878
2874,     874,    2879
2875,     875,    2880
2876,     876,    2881
2877,     877,    2882
2878,     878,    2883
2879,     879,    2884
2880,     880,    2885
2881,     881,    2886
2882,     882,    2887
2883,     883,    2888
2884,     884,    2889
2885,     885,    2890
2886,     886,    2891
2887,     887,    2892
2888,     888,    2893
2889,     889,    2894
2890,     890,    2895
2891,     891,    2896
2892,     892,    2897
2893,     893,    2898
2894,     894,    2899
2895,     895,    2900
2896,     896,    2901
2897,     897,    2902
2898,     898,    2903
2899,     899,    2904
2900,     900,    2905
2901,     901,    2906
2902,     902,    2907
2903,     903,    2908
2904,     904,    2909
2905,     905,    2910
2906,     906,    2911
2907,     907,    2912
2908,     908,    2913
2909,     909,    2914
2910,     910,    2915
2911,     911,    2916
2912,     912,    2917
2913,     913,    2918
2914,     914,    2919
2915,     915,    2920
2916,     916,    2921
2917,     917,    2922
2918,     918,    2923
2919,     919,    2924
2920,     920,    2925
2921,     921,    2926
2922,     922,    2927
2923,     923,    2928
2924,     924,    2929
2925,     925,    2930
2926,     926,    2931
2927,     927,    2932
2928,     928,    2933
2929,     929,    2934
2930,     930,    2935
2931,     931,    2936
2932,     932,    2937
2933,     933,    2938
2934,     934,    2939
2935,     935,    2940
2936,     936,    2941
2937,     937,    2942
2938,     938,    2943
2939,     939,    2944
2940,     940,    2945
2941,     941,    2946
2942,     942,    2947
2943,     943,    2948
2944,     944,    2949
2945,     945,    2950
2946,     946,    2951
2947,     947,    2952
2948,     948,    2953
2949,     949,    2954
2950,     950,    2955
2951,     951,    2956
2952,     952,    2957
2953,     953,    2958
2954,     954,    2959
2955,     955,    2960
2956,     956,    2961
2957,     957,    2962
2958,     958,    2963
2959,     959,    2964
2960,     960,    2965
2961,     961,    2966
2962,     962,    2967
2963,     963,    2968
2964,     964,    2969
2965,     965,    2970
2966,     966,    2971
2967,     967,    2972
2968,     968,    2973
2969,     969,    2974
2970,     970,    2975
2971,     971,    2976
2972,     972,    2977
2973,     973,    2978
2974,     974,    2979
2975,     975,    2980
2976,     976,    2981
2977,     977,    2982
2978,     978,    2983
2979,     979,    2984
2980,     980,    2985
2981,     981,    2986
2982,     982,    2987
2983,     983,    2988
2984,     984,    2989
2985,     985,    2990
2986,     986,    2991
2987,     987,    2992
2988,     988,    2993
2989,     989,    2994
2990,     990,    2995
2991,     991,    2996
2992,     992,    2997
2993,     993,    2998
2994,     994,    2999
2995,     995,    3000
2996,     996,    3001
2997,     997,    3002
2998,     998,    3003
2999,     999,    3004
3000,    1000,    3005
3001,    1001,    3006
3002,    1002,    3007
3003,    1003,    3008
3004,    1004,    3009
3005,    1005,    3010
3006,    1006,    3011
3007,    1007,    3012
3008,    1008,    3013
3009,    1009,    3014
3010,    1010,    3015
3011,    1011,    3016
3012,    1012,    3017
3013,    1013,    3018
3014,    1014,    3019
3015,    1015,    3020
3016,    1016,    3021
3017,    1017,    3022
3018,    1018,    3023
3019,    1019,    3024
3020,    1020,    3025
3021,    1021,    3026
3022,    1022,    3027
3023,    1023,    3028
3024,    1024,    3029
3025,    1025,    3030
3026,    1026,    3031
3027,    1027,    3032
3028,    1028,    3033
3029,    1029,    3034
3030,    1030,    3035
3031,    1031,    3036
3032,    1032,    3037
3033,    1033,    3038
3034,    1034,    3039
3035,    1035,    3040
3036,    1036,    3041
3037,    1037,    3042
3038,    1038,    3043
3039,    1039,    3044
3040,    1040,    3045
3041,    1041,    3046
3042,    1042,    3047
3043,    1043,    3048
3044,    1044,    3049
3045,    1045,    3050
3046,    1046,    3051
3047,    1047,    3052
3048,    1048,    3053
3049,    1049,    3054
3050,    1050,    3055
3051,    1051,    3056
3052,    1052,    3057
3053,    1053,    3058
3054,    1054,    3059
3055,    1055,    3060
3056,    1056,    3061
3057,    1057,    3062
3058,    1058,    3063
3059,    1059,    3064
3060,    1060,    3065
3061,    1061,    3066
3062,    1062,    3067
3063,    1063,    3068
3064,    1064,    3069
3065,    1065,    3070
3066,    1066,    3071
3067,    1067,    3072
3068,    1068,    3073
3069,    1069,    3074
3070,    1070,    3075
3071,    1071,    3076
3072,    1072,    3077
3073,    1073,    3078
3074,    1074,    3079
3075,    1075,    3080
3076,    1076,    3081
3077,    1077,    3082
3078,    1078,    3083
3079,    1079,    3084
3080,    1080,    3085
3081,    1081,    3086
3082,    1082,    3087
3083,    1083,    3088
3084,    1084,    3089
3085,    1085,    3090
3086,    1086,    3091
3087,    1087,    3092
3088,    1088,    3093
3089,    1089,    3094
3090,    1090,    3095
3091,    1091,    3096
3092,    1092,    3097
3093,    1093,    3098
3094,    1094,    3099
3095,    1095,    3100
3096,    1096,    3101
3097,    1097,    3102
3098,    1098,    3103
3099,    1099,    3104
3100,    1100,    3105
3101,    1101,    3106
3102,    1102,    3107
3103,    1103,    3108
3104,    1104,    3109
3105,    1105,    3110
3106,    1106,    3111
3107,    1107,    3112
3108,    1108,    3113
3109,    1109,    3114
3110,    1110,    3115
3111,    1111,    3116
3112,    1112,    3117
3113,    1113,    3118
3114,    1114,    3119
3115,    1115,    3120
3116,    1116,    3121
3117,    1117,    3122
3118,    1118,    3123
3119,    1119,    3124
3120,    1120,    3125
3121,    1121,    3126
3122,    1122,    3127
3123,    1123,    3128
3124,    1124,    3129
3125,    1125,    3130
3126,    1126,    3131
3127,    1127,    3132
3128,    1128,    3133
3129,    1129,    3134
3130,    1130,    3135
3131,    1131,    3136
3132,    1132,    3137
3133,    1133,    3138
3134,    1134,    3139
3135,    1135,    3140
3136,    1136,    3141
3137,    1137,    3142
3138,    1138,    3143
3139,    1139,    3144
3140,    1140,    3145
3141,    1141,    3146
3142,    1142,    3147
3143,    1143,    3148
3144,    1144,    3149
3145,    1145,    3150
3146,    1146,    3151
3147,    1147,    3152
3148,    1148,    3153
3149,    1149,    3154
3150,    1150,    3155
3151,    1151,    3156
3152,    1152,    3157
3153,    1153,    3158
3154,    1154,    3159
3155,    1155,    3160
3156,    1156,    3161
3157,    1157,    3162
3158,    1158,    3163
3159,    1159,    3164
3160,    1160,    3165
3161,    1161,    3166
3162,    1162,    3167
3163,    1163,    3168
3164,    1164,    3169
3165,    1165,    3170
3166,    1166,    3171
3167,    1167,    3172
3168,    1168,    3173
3169,    1169,    3174
3170,    1170,    3175
3171,    1171,    3176
3172,    1172,    3177
3173,    1173,    3178
3174,    1174,    3179
3175,    1175,    3180
3176,    1176,    3181
3177,    1177,    3182
3178,    1178,    3183
3179,    1179,    3184
3180,    1180,    3185
3181,    1181,    3186
3182,    1182,    3187
3183,    1183,    3188
3184,    1184,    3189
3185,    1185,    3190
3186,    1186,    3191
3187,    1187,    3192
3188,    1188,    3193
3189,    1189,    3194
3190,    1190,    3195
3191,    1191,    3196
3192,    1192,    3197
3193,    1193,    3198
3194,    1194,    3199
3195,    1195,    3200
3196,    1196,    3201
3197,    1197,    3202
3198,    1198,    3203
3199,    1199,    3204
3200,    1200,    3205
3201,    1201,    3206
3202,    1202,    3207
3203,    1203,    3208
3204,    1204,    3209
3205,    1206,    3210
3206,    1208,    3211
3207,    1210,    3212
3208,    1212,    3213
3209,    1214,    3214
3210,    1216,    3215
3211,    1218,    3216
3212,    1220,    3217
3213,    1222,    3218
3214,    1224,    3219
3215,    1226,    3220
3216,    1228,    3221
3217,    1230,    3222
3218,    1232,    3223
3219,    1234,    3224
3220,    1236,    3225
3221,    1238,    3226
3222,    1240,    3227
3223,    1242,    3228
3224,    1205,    3229
3225,    1207,    3230
3226,    1209,    3231
3227,    1211,    3232
3228,    1213,    3233
3229,    1215,    3234
3230,    1217,    3235
3231,    1219,    3236
3232,    1221,    3237
3233,    1223,    3238
3234,    1225,    3239
3235,    1227,    3240
3236,    1229,    3241
3237,    1231,    3242
3238,    1233,    3243
3239,    1235,    3244
3240,    1237,    3245
3241,    1239,    3246
3242,    1241,    3247
3243,    1243,    3248
3244,    1244,    3249
3245,    1245,    3250
3246,    1246,    3251
3247,    1247,    3252
3248,    1248,    3253
3249,    1249,    3254
3250,    1250,    3255
3251,    1251,    3256
3252,    1252,    3257
3253,    1253,    3258
3254,    1254,    3259
3255,    1255,    3260
3256,    1256,    3261
3257,    1257,    3262
3258,    1258,    3263
3259,    1259,    3264
3260,    1260,    3265
3261,    1261,    3266
3262,    1262,    3267
3263,    1263,    3268
3264,    1264,    3269
3265,    1265,    3270
3266,    1266,    3271
3267,    1267,    3272
3268,    1268,    3273
3269,    1269,    3274
3270,    1270,    3275
3271,    1271,    3276
3272,    1272,    3277
3273,    1273,    3278
3274,    1274,    3279
3275,    1275,    3280
3276,    1276,    3281
3277,    1277,    3282
3278,    1278,    3283
3279,    1279,    3284
3280,    1280,    3285
3281,    1281,    3286
3282,    1282,    3287
3283,    1283,    3288
3284,    1284,    3289
3285,    1285,    3290
3286,    1286,    3291
3287,    1287,    3292
3288,    1288,    3293
3289,    1289,    3294
3290,    1290,    3295
3291,    1291,    3296
3292,    1292,    3297
3293,    1293,    3298
3294,    1294,    3299
3295,    1295,    3300
3296,    1296,    3301
3297,    1297,    3302
3298,    1298,    3303
3299,    1299,    3304
3300,    1300,    3305
3301,    1301,    3306
3302,    1302,    3307
3303,    1303,    3308
3304,    1304,    3309
3305,    1305,    3310
3306,    1306,    3311
3307,    1307,    3312
3308,    1308,    3313
3309,    1309,    3314
3310,    1310,    3315
3311,    1311,    3316
3312,    1312,    3317
3313,    1313,    3318
3314,    1314,    3319
3315,    1315,    3320
3316,    1316,    3321
3317,    1317,    3322
3318,    1318,    3323
3319,    1319,    3324
3320,    1320,    3325
3321,    1321,    3326
3322,    1322,    3327
3323,    1323,    3328
3324,    1324,    3329
3325,    1325,    3330
3326,    1326,    3331
3327,    1327,    3332
3328,    1328,    3333
3329,    1329,    3334
3330,    1330,    3335
3331,    1331,    3336
3332,    1332,    3337
3333,    1333,    3338
3334,    1334,    3339
3335,    1335,    3340
3336,    1336,    3341
3337,    1337,    3342
3338,    1338,    3343
3339,    1339,    3344
3340,    1340,    3345
3341,    1341,    3346
3342,    1342,    3347
3343,    1343,    3348
3344,    1344,    3349
3345,    1345,    3350
3346,    1346,    3351
3347,    1347,    3352
3348,    1348,    3353
3349,    1349,    3354
3350,    1350,    3355
3351,    1351,    3356
3352,    1352,    3357
3353,    1353,    3358
3354,    1354,    3359
3355,    1355,    3360
3356,    1356,    3361
3357,    1357,    3362
3358,    1358,    3363
3359,    1359,    3364
3360,    1360,    3365
3361,    1361,    3366
3362,    1362,    3367
3363,    1363,    3368
3364,    1364,    3369
3365,    1365,    3370
3366,    1366,    3371
3367,    1367,    3372
3368,    1368,    3373
3369,    1369,    3374
3370,    1370,    3375
3371,    1371,    3376
3372,    1372,    3377
3373,    1373,    3378
3374,    1374,    3379
3375,    1375,    3380
3376,    1376,    3381
3377,    1377,    3382
3378,    1378,    3383
3379,    1379,    3384
3380,    1380,    3385
3381,    1381,    3386
3382,    1382,    3387
3383,    1383,    3388
3384,    1384,    3389
3385,    1385,    3390
3386,    1386,    3391
3387,    1387,    3392
3388,    1388,    3393
3389,    1389,    3394
3390,    1390,    3395
3391,    1391,    3396
3392,    1392,    3397
3393,    1393,    3398
3394,    1394,    3399
3395,    1395,    3400
3396,    1396,    3401
3397,    1397,    3402
3398,    1398,    3403
3399,    1399,    3404
3400,    1400,    3405
3401,    1401,    3406
3402,    1402,    3407
3403,    1403,    3408
3404,    1404,    3409
3405,    1405,    3410
3406,    1406,    3411
3407,    1407,    3412
3408,    1408,    3413
3409,    1409,    3414
3410,    1410,    3415
3411,    1411,    3416
3412,    1412,    3417
3413,    1413,    3418
3414,    1414,    3419
3415,    1415,    3420
3416,    1416,    3421
3417,    1417,    3422
3418,    1418,    3423
3419,    1419,    3424
3420,    1420,    3425
3421,    1421,    3426
3422,    1422,    3427
3423,    1423,    3428
3424,    1424,    3429
3425,    1425,    3430
3426,    1426,    3431
3427,    1427,    3432
3428,    1428,    3433
3429,    1429,    3434
3430,    1430,    3435
3431,    1431,    3436
3432,    1432,    3437
3433,    1433,    3438
3434,    1434,    3439
3435,    1435,    3440
3436,    1436,    3441
3437,    1437,    3442
3438,    1438,    3443
3439,    1439,    3444
3440,    1440,    3445
3441,    1441,    3446
3442,    1442,    3447
3443,    1443,    3448
3444,    1444,    3449
3445,    1445,    3450
3446,    1446,    3451
3447,    1447,    3452
3448,    1448,    3453
3449,    1449,    3454
3450,    1450,    3455
3451,    1451,    3456
3452,    1452,    3457
3453,    1453,    3458
3454,    1454,    3459
3455,    1455,    3460
3456,    1456,    3461
3457,    1457,    3462
3458,    1458,    3463
3459,    1459,    3464
3460,    1460,    3465
3461,    1461,    3466
3462,    1462,    3467
3463,    1463,    3468
3464,    1464,    3469
3465,    1465,    3470
3466,    1466,    3471
3467,    1467,    3472
3468,    1468,    3473
3469,    1469,    3474
3470,    1470,    3475
3471,    1471,    3476
3472,    1472,    3477
3473,    1473,    3478
3474,    1474,    3479
3475,    1475,    3480
3476,    1476,    3481
3477,    1477,    3482
3478,    1478,    3483
3479,    1479,    3484
3480,    1480,    3485
3481,    1481,    3486
3482,    1482,    3487
3483,    1483,    3488
3484,    1484,    3489
3485,    1485,    3490
3486,    1486,    3491
3487,    1487,    3492
3488,    1488,    3493
3489,    1489,    3494
3490,    1490,    3495
3491,    1491,    3496
3492,    1492,    3497
3493,    1493,    3498
3494,    1494,    3499
3495,    1495,    3500
3496,    1496,    3501
3497,    1497,    3502
3498,    1498,    3503
3499,    1499,    3504
3500,    1500,    3505
3501,    1501,    3506
3502,    1502,    3507
3503,    1503,    3508
3504,    1504,    3509
3505,    1505,    3510
3506,    1506,    3511
3507,    1507,    3512
3508,    1508,    3513
3509,    1509,    3514
3510,    1510,    3515
3511,    1511,    3516
3512,    1512,    3517
3513,    1513,    3518
3514,    1514,    3519
3515,    1515,    3520
3516,    1516,    3521
3517,    1517,    3522
3518,    1518,    3523
3519,    1519,    3524
3520,    1520,    3525
3521,    1521,    3526
3522,    1522,    3527
3523,    1523,    3528
3524,    1524,    3529
3525,    1525,    3530
3526,    1526,    3531
3527,    1527,    3532
3528,    1528,    3533
3529,    1529,    3534
3530,    1530,    3535
3531,    1531,    3536
3532,    1532,    3537
3533,    1533,    3538
3534,    1534,    3539
3535,    1535,    3540
3536,    1536,    3541
3537,    1537,    3542
3538,    1538,    3543
3539,    1539,    3544
3540,    1540,    3545
3541,    1541,    3546
3542,    1542,    3547
3543,    1543,    3548
3544,    1544,    3549
3545,    1545,    3550
3546,    1546,    3551
3547,    1547,    3552
3548,    1548,    3553
3549,    1549,    3554
3550,    1550,    3555
3551,    1551,    3556
3552,    1552,    3557
3553,    1553,    3558
3554,    1554,    3559
3555,    1555,    3560
3556,    1556,    3561
3557,    1557,    3562
3558,    1558,    3563
3559,    1559,    3564
3560,    1560,    3565
3561,    1561,    3566
3562,    1562,    3567
3563,    1563,    3568
3564,    1564,    3569
3565,    1565,    3570
3566,    1566,    3571
3567,    1567,    3572
3568,    1568,    3573
3569,    1569,    3574
3570,    1570,    3575
3571,    1571,    3576
3572,    1572,    3577
3573,    1573,    3578
3574,    1574,    3579
3575,    1575,    3580
3576,    1576,    3581
3577,    1577,    3582
3578,    1578,    3583
3579,    1579,    3584
3580,    1580,    3585
3581,    1581,    3586
3582,    1582,    3587
3583,    1583,    3588
3584,    1584,    3589
3585,    1585,    3590
3586,    1586,    3591
3587,    1587,    3592
3588,    1588,    3593
3589,    1589,    3594
3590,    1590,    3595
3591,    1591,    3596
3592,    1592,    3597
3593,    1593,    3598
3594,    1594,    3599
3595,    1595,    3600
3596,    1596,    3601
3597,    1597,    3602
3598,    1598,    3603
3599,    1599,    3604
3600,    1600,    3605
3601,    1601,    3606
3602,    1602,    3607
3603,    1603,    3608
3604,    1604,    3609
3605,    1605,    3610
3606,    1607,    3611
3607,    1609,    3612
3608,    1611,    3613
3609,    1613,    3614
3610,    1615,    3615
3611,    1617,    3616
3612,    1619,    3617
3613,    1621,    3618
3614,    1623,    3619
3615,    1625,    3620
3616,    1627,    3621
3617,    1629,    3622
3618,    1631,    3623
3619,    1633,    3624
3620,    1635,    3625
3621,    1637,    3626
3622,    1639,    3627
3623,    1641,    3628
3624,    1643,    3629
3625,    1606,    3630
3626,    1608,    3631
3627,    1610,    3632
3628,    1612,    3633
3629,    1614,    3634
3630,    1616,    3635
3631,    1618,    3636
3632,    1620,    3637
3633,    1622,    3638
3634,    1624,    3639
3635,    1626,    3640
3636,    1628,    3641
3637,    1630,    3642
3638,    1632,    3643
3639,    1634,    3644
3640,    1636,    3645
3641,    1638,    3646
3642,    1640,    3647
3643,    1642,    3648
3644,    1644,    3649
3645,    1645,    3650
3646,    1646,    3651
3647,    1647,    3652
3648,    1648,    3653
3649,    1649,    3654
3650,    1650,    3655
3651,    1651,    3656
3652,    1652,    3657
3653,    1653,    3658
3654,    1654,    3659
3655,    1655,    3660
3656,    1656,    3661
3657,    1657,    3662
3658,    1658,    3663
3659,    1659,    3664
3660,    1660,    3665
3661,    1661,    3666
3662,    1662,    3667
3663,    1663,    3668
3664,    1664,    3669
3665,    1665,    3670
3666,    1666,    3671
3667,    1667,    3672
3668,    1668,    3673
3669,    1669,    3674
3670,    1670,    3675
3671,    1671,    3676
3672,    1672,    3677
3673,    1673,    3678
3674,    1674,    3679
3675,    1675,    3680
3676,    1676,    3681
3677,    1677,    3682
3678,    1678,    3683
3679,    1679,    3684
3680,    1680,    3685
3681,    1681,    3686
3682,    1682,    3687
3683,    1683,    3688
3684,    1684,    3689
3685,    1685,    3690
3686,    1686,    3691
3687,    1687,    3692
3688,    1688,    3693
3689,    1689,    3694
3690,    1690,    3695
3691,    1691,    3696
3692,    1692,    3697
3693,    1693,    3698
3694,    1694,    3699
3695,    1695,    3700
3696,    1696,    3701
3697,    1697,    3702
3698,    1698,    3703
3699,    1699,    3704
3700,    1700,    3705
3701,    1701,    3706
3702,    1702,    3707
3703,    1703,    3708
3704,    1704,    3709
3705,    1705,    3710
3706,    1706,    3711
3707,    1707,    3712
3708,    1708,    3713
3709,    1709,    3714
3710,    1710,    3715
3711,    1711,    3716
3712,    1712,    3717
3713,    1713,    3718
3714,    1714,    3719
3715,    1715,    3720
3716,    1716,    3721
3717,    1717,    3722
3718,    1718,    3723
3719,    1719,    3724
3720,    1720,    3725
3721,    1721,    3726
3722,    1722,    3727
3723,    1723,    3728
3724,    1724,    3729
3725,    1725,    3730
3726,    1726,    3731
3727,    1727,    3732
3728,    1728,    3733
3729,    1729,    3734
3730,    1730,    3735
3731,    1731,    3736
3732,    1732,    3737
3733,    1733,    3738
3734,    1734,    3739
3735,    1735,    3740
3736,    1736,    3741
3737,    1737,    3742
3738,    1738,    3743
3739,    1739,    3744
3740,    1740,    3745
3741,    1741,    3746
3742,    1742,    3747
3743,    1743,    3748
3744,    1744,    3749
3745,    1745,    3750
3746,    1746,    3751
3747,    1747,    3752
3748,    1748,    3753
3749,    1749,    3754
3750,    1750,    3755
3751,    1751,    3756
3752,    1752,    3757
3753,    1753,    3758
3754,    1754,    3759
3755,    1755,    3760
3756,    1756,    3761
3757,    1757,    3762
3758,    1758,    3763
3759,    1759,    3764
3760,    1760,    3765
3761,    1761,    3766
3762,    1762,    3767
3763,    1763,    3768
3764,    1764,    3769
3765,    1765,    3770
3766,    1766,    3771
3767,    1767,    3772
3768,    1768,    3773
3769,    1769,    3774
3770,    1770,    3775
3771,    1771,    3776
3772,    1772,    3777
3773,    1773,    3778
3774,    1774,    3779
3775,    1775,    3780
3776,    1776,    3781
3777,    1777,    3782
3778,    1778,    3783
3779,    1779,    3784
3780,    1780,    3785
3781,    1781,    3786
3782,    1782,    3787
3783,    1783,    3788
3784,    1784,    3789
3785,    1785,    3790
3786,    1786,    3791
3787,    1787,    3792
3788,    1788,    3793
3789,    1789,    3794
3790,    1790,    3795
3791,    1791,    3796
3792,    1792,    3797
3793,    1793,    3798
3794,    1794,    3799
3795,    1795,    3800
3796,    1796,    3801
3797,    1797,    3802
3798,    1798,    3803
3799,    1799,    3804
3800,    1800,    3805
3801,    1801,    3806
3802,    1802,    3807
3803,    1803,    3808
3804,    1804,    3809
3805,    1805,    3810
3806,    1806,    3811
3807,    1807,    3812
3808,    1808,    3813
3809,    1809,    3814
3810,    1810,    3815
3811,    1811,    3816
3812,    1812,    3817
3813,    1813,    3818
3814,    1814,    3819
3815,    1815,    3820
3816,    1816,    3821
3817,    1817,    3822
3818,    1818,    3823
3819,    1819,    3824
3820,    1820,    3825
3821,    1821,    3826
3822,    1822,    3827
3823,    1823,    3828
3824,    1824,    3829
3825,    1825,    3830
3826,    1826,    3831
3827,    1827,    3832
3828,    1828,    3833
3829,    1829,    3834
3830,    1830,    3835
3831,    1831,    3836
3832,    1832,    3837
3833,    1833,    3838
3834,    1834,    3839
3835,    1835,    3840
3836,    1836,    3841
3837,    1837,    3842
3838,    1838,    3843
3839,    1839,    3844
3840,    1840,    3845
3841,    1841,    3846
3842,    1842,    3847
3843,    1843,    3848
3844,    1844,    3849
3845,    1845,    3850
3846,    1846,    3851
3847,    1847,    3852
3848,    1848,    3853
3849,    1849,    3854
3850,    1850,    3855
3851,    1851,    3856
3852,    1852,    3857
3853,    1853,    3858
3854,    1854,    3859
3855,    1855,    3860
3856,    1856,    3861
3857,    1857,    3862
3858,    1858,    3863
3859,    1859,    3864
3860,    1860,    3865
3861,    1861,    3866
3862,    1862,    3867
3863,    1863,    3868
3864,    1864,    3869
3865,    1865,    3870
3866,    1866,    3871
3867,    1867,    3872
3868,    1868,    3873
3869,    1869,    3874
3870,    1870,    3875
3871,    1871,    3876
3872,    1872,    3877
3873,    1873,    3878
3874,    1874,    3879
3875,    1875,    3880
3876,    1876,    3881
3877,    1877,    3882
3878,    1878,    3883
3879,    1879,    3884
3880,    1880,    3885
3881,    1881,    3886
3882,    1882,    3887
3883,    1883,    3888
3884,    1884,    3889
3885,    1885,    3890
3886,    1886,    3891
3887,    1887,    3892
3888,    1888,    3893
3889,    1889,    3894
3890,    1890,    3895
3891,    1891,    3896
3892,    1892,    3897
3893,    1893,    3898
3894,    1894,    3899
3895,    1895,    3900
3896,    1896,    3901
3897,    1897,    3902
3898,    1898,    3903
3899,    1899,    3904
3900,    1900,    3905
3901,    1901,    3906
3902,    1902,    3907
3903,    1903,    3908
3904,    1904,    3909
3905,    1905,    3910
3906,    1906,    3911
3907,    1907,    3912
3908,    1908,    3913
3909,    1909,    3914
3910,    1910,    3915
3911,    1911,    3916
3912,    1912,    3917
3913,    1913,    3918
3914,    1914,    3919
3915,    1915,    3920
3916,    1916,    3921
3917,    1917,    3922
3918,    1918,    3923
3919,    1919,    3924
3920,    1920,    3925
3921,    1921,    3926
3922,    1922,    3927
3923,    1923,    3928
3924,    1924,    3929
3925,    1925,    3930
3926,    1926,    3931
3927,    1927,    3932
3928,    1928,    3933
3929,    1929,    3934
3930,    1930,    3935
3931,    1931,    3936
3932,    1932,    3937
3933,    1933,    3938
3934,    1934,    3939
3935,    1935,    3940
3936,    1936,    3941
3937,    1937,    3942
3938,    1938,    3943
3939,    1939,    3944
3940,    1940,    3945
3941,    1941,    3946
3942,    1942,    3947
3943,    1943,    3948
3944,    1944,    3949
3945,    1945,    3950
3946,    1946,    3951
3947,    1947,    3952
3948,    1948,    3953
3949,    1949,    3954
3950,    1950,    3955
3951,    1951,    3956
3952,    1952,    3957
3953,    1953,    3958
3954,    1954,    3959
3955,    1955,    3960
3956,    1956,    3961
3957,    1957,    3962
3958,    1958,    3963
3959,    1959,    3964
3960,    1960,    3965
3961,    1961,    3966
3962,    1962,    3967
3963,    1963,    3968
3964,    1964,    3969
3965,    1965,    3970
3966,    1966,    3971
3967,    1967,    3972
3968,    1968,    3973
3969,    1969,    3974
3970,    1970,    3975
3971,    1971,    3976
3972,    1972,    3977
3973,    1973,    3978
3974,    1974,    3979
3975,    1975,    3980
3976,    1976,    3981
3977,    1977,    3982
3978,    1978,    3983
3979,    1979,    3984
3980,    1980,    3985
3981,    1981,    3986
3982,    1982,    3987
3983,    1983,    3988
3984,    1984,    3989
3985,    1985,    3990
3986,    1986,    3991
3987,    1987,    3992
3988,    1988,    3993
3989,    1989,    3994
3990,    1990,    3995
3991,    1991,    3996
3992,    1992,    3997
3993,    1993,    3998
3994,    1994,    3999
3995,    1995,    4000
3996,    1996,    4001
3997,    1997,    4002
3998,    1998,    4003
3999,    1999,    4004
4000,    2000,    4005
4001,    2001,    4006
4002,    2002,    4007
4003,    2003,    4008
4004,    2004,    4009
4005,    2005,    4010

*ELEMENT,  TYPE=S4R
4006,    4011,    4012,    4013,    4014
4007,    4015,    4016,    4017,    4018
4008,    4019,    4020,    4021,    4022
4009,    4023,    4024,    4025,    4026
4010,    4027,    4028,    4029,    4030
4011,    4031,    4032,    4033,    4034
4012,    4035,    4036,    4037,    4038
4013,    4039,    4040,    4041,    4042
4014,    4043,    4044,    4045,    4046
4015,    4047,    4048,    4049,    4050
4016,    4051,    4052,    4053,    4054
4017,    4055,    4056,    4057,    4058
4018,    4059,    4060,    4061,    4062
4019,    4063,    4064,    4065,    4066
4020,    4067,    4068,    4069,    4070
4021,    4071,    4072,    4073,    4074
4022,    4075,    4076,    4077,    4078
4023,    4079,    4080,    4081,    4082
4024,    4083,    4084,    4085,    4086
4025,    4087,    4088,    4089,    4090
4026,    4012,    3630,    3610,    4013
4027,    4016,    3631,    3611,    4017
4028,    4020,    3632,    3612,    4021
4029,    4024,    3633,    3613,    4025
4030,    4028,    3634,    3614,    4029
4031,    4032,    3635,    3615,    4033
4032,    4036,    3636,    3616,    4037
4033,    4040,    3637,    3617,    4041
4034,    4044,    3638,    3618,    4045
4035,    4048,    3639,    3619,    4049
4036,    4052,    3640,    3620,    4053
4037,    4056,    3641,    3621,    4057
4038,    4060,    3642,    3622,    4061
4039,    4064,    3643,    3623,    4065
4040,    4068,    3644,    3624,    4069
4041,    4072,    3645,    3625,    4073
4042,    4076,    3646,    3626,    4077
4043,    4080,    3647,    3627,    4081
4044,    4084,    3648,    3628,    4085
4045,    4088,    3649,    3629,    4089
4046,    3630,    4091,    4092,    3610
4047,    3631,    4093,    4094,    3611
4048,    3632,    4095,    4096,    3612
4049,    3633,    4097,    4098,    3613
4050,    3634,    4099,    4100,    3614
4051,    3635,    4101,    4102,    3615
4052,    3636,    4103,    4104,    3616
4053,    3637,    4105,    4106,    3617
4054,    3638,    4107,    4108,    3618
4055,    3639,    4109,    4110,    3619
4056,    3640,    4111,    4112,    3620
4057,    3641,    4113,    4114,    3621
4058,    3642,    4115,    4116,    3622
4059,    3643,    4117,    4118,    3623
4060,    3644,    4119,    4120,    3624
4061,    3645,    4121,    4122,    3625
4062,    3646,    4123,    4124,    3626
4063,    3647,    4125,    4126,    3627
4064,    3648,    4127,    4128,    3628
4065,    3649,    4129,    4130,    3629
4066,    4091,    3229,    3209,    4092
4067,    4093,    3230,    3210,    4094
4068,    4095,    3231,    3211,    4096
4069,    4097,    3232,    3212,    4098
4070,    4099,    3233,    3213,    4100
4071,    4101,    3234,    3214,    4102
4072,    4103,    3235,    3215,    4104
4073,    4105,    3236,    3216,    4106
4074,    4107,    3237,    3217,    4108
4075,    4109,    3238,    3218,    4110
4076,    4111,    3239,    3219,    4112
4077,    4113,    3240,    3220,    4114
4078,    4115,    3241,    3221,    4116
4079,    4117,    3242,    3222,    4118
4080,    4119,    3243,    3223,    4120
4081,    4121,    3244,    3224,    4122
4082,    4123,    3245,    3225,    4124
4083,    4125,    3246,    3226,    4126
4084,    4127,    3247,    3227,    4128
4085,    4129,    3248,    3228,    4130
4086,    3229,    4131,    4132,    3209
4087,    3230,    4133,    4134,    3210
4088,    3231,    4135,    4136,    3211
4089,    3232,    4137,    4138,    3212
4090,    3233,    4139,    4140,    3213
4091,    3234,    4141,    4142,    3214
4092,    3235,    4143,    4144,    3215
4093,    3236,    4145,    4146,    3216
4094,    3237,    4147,    4148,    3217
4095,    3238,    4149,    4150,    3218
4096,    3239,    4151,    4152,    3219
4097,    3240,    4153,    4154,    3220
4098,    3241,    4155,    4156,    3221
4099,    3242,    4157,    4158,    3222
4100,    3243,    4159,    4160,    3223
4101,    3244,    4161,    4162,    3224
4102,    3245,    4163,    4164,    3225
4103,    3246,    4165,    4166,    3226
4104,    3247,    4167,    4168,    3227
4105,    3248,    4169,    4170,    3228
4106,    4131,    4171,    4172,    4132
4107,    4133,    4173,    4174,    4134
4108,    4135,    4175,    4176,    4136
4109,    4137,    4177,    4178,    4138
4110,    4139,    4179,    4180,    4140
4111,    4141,    4181,    4182,    4142
4112,    4143,    4183,    4184,    4144
4113,    4145,    4185,    4186,    4146
4114,    4147,    4187,    4188,    4148
4115,    4149,    4189,    4190,    4150
4116,    4151,    4191,    4192,    4152
4117,    4153,    4193,    4194,    4154
4118,    4155,    4195,    4196,    4156
4119,    4157,    4197,    4198,    4158
4120,    4159,    4199,    4200,    4160
4121,    4161,    4201,    4202,    4162
4122,    4163,    4203,    4204,    4164
4123,    4165,    4205,    4206,    4166
4124,    4167,    4207,    4208,    4168
4125,    4169,    4209,    4210,    4170
4126,    4171,    4211,    4212,    4172
4127,    4173,    4213,    4214,    4174
4128,    4175,    4215,    4216,    4176
4129,    4177,    4217,    4218,    4178
4130,    4179,    4219,    4220,    4180
4131,    4181,    4221,    4222,    4182
4132,    4183,    4223,    4224,    4184
4133,    4185,    4225,    4226,    4186
4134,    4187,    4227,    4228,    4188
4135,    4189,    4229,    4230,    4190
4136,    4191,    4231,    4232,    4192
4137,    4193,    4233,    4234,    4194
4138,    4195,    4235,    4236,    4196
4139,    4197,    4237,    4238,    4198
4140,    4199,    4239,    4240,    4200
4141,    4201,    4241,    4242,    4202
4142,    4203,    4243,    4244,    4204
4143,    4205,    4245,    4246,    4206
4144,    4207,    4247,    4248,    4208
4145,    4209,    4249,    4250,    4210
4146,    4211,    2427,    2407,    4212
4147,    4213,    2428,    2408,    4214
4148,    4215,    2429,    2409,    4216
4149,    4217,    2430,    2410,    4218
4150,    4219,    2431,    2411,    4220
4151,    4221,    2432,    2412,    4222
4152,    4223,    2433,    2413,    4224
4153,    4225,    2434,    2414,    4226
4154,    4227,    2435,    2415,    4228
4155,    4229,    2436,    2416,    4230
4156,    4231,    2437,    2417,    4232
4157,    4233,    2438,    2418,    4234
4158,    4235,    2439,    2419,    4236
4159,    4237,    2440,    2420,    4238
4160,    4239,    2441,    2421,    4240
4161,    4241,    2442,    2422,    4242
4162,    4243,    2443,    2423,    4244
4163,    4245,    2444,    2424,    4246
4164,    4247,    2445,    2425,    4248
4165,    4249,    2446,    2426,    4250
4166,    2427,    4251,    4252,    2407
4167,    2428,    4253,    4254,    2408
4168,    2429,    4255,    4256,    2409
4169,    2430,    4257,    4258,    2410
4170,    2431,    4259,    4260,    2411
4171,    2432,    4261,    4262,    2412
4172,    2433,    4263,    4264,    2413
4173,    2434,    4265,    4266,    2414
4174,    2435,    4267,    4268,    2415
4175,    2436,    4269,    4270,    2416
4176,    2437,    4271,    4272,    2417
4177,    2438,    4273,    4274,    2418
4178,    2439,    4275,    4276,    2419
4179,    2440,    4277,    4278,    2420
4180,    2441,    4279,    4280,    2421
4181,    2442,    4281,    4282,    2422
4182,    2443,    4283,    4284,    2423
4183,    2444,    4285,    4286,    2424
4184,    2445,    4287,    4288,    2425
4185,    2446,    4289,    4290,    2426
4186,    4251,    2828,    2808,    4252
4187,    4253,    2829,    2809,    4254
4188,    4255,    2830,    2810,    4256
4189,    4257,    2831,    2811,    4258
4190,    4259,    2832,    2812,    4260
4191,    4261,    2833,    2813,    4262
4192,    4263,    2834,    2814,    4264
4193,    4265,    2835,    2815,    4266
4194,    4267,    2836,    2816,    4268
4195,    4269,    2837,    2817,    4270
4196,    4271,    2838,    2818,    4272
4197,    4273,    2839,    2819,    4274
4198,    4275,    2840,    2820,    4276
4199,    4277,    2841,    2821,    4278
4200,    4279,    2842,    2822,    4280
4201,    4281,    2843,    2823,    4282
4202,    4283,    2844,    2824,    4284
4203,    4285,    2845,    2825,    4286
4204,    4287,    2846,    2826,    4288
4205,    4289,    2847,    2827,    4290
4206,    2828,    4291,    4292,    2808
4207,    2829,    4293,    4294,    2809
4208,    2830,    4295,    4296,    2810
4209,    2831,    4297,    4298,    2811
4210,    2832,    4299,    4300,    2812
4211,    2833,    4301,    4302,    2813
4212,    2834,    4303,    4304,    2814
4213,    2835,    4305,    4306,    2815
4214,    2836,    4307,    4308,    2816
4215,    2837,    4309,    4310,    2817
4216,    2838,    4311,    4312,    2818
4217,    2839,    4313,    4314,    2819
4218,    2840,    4315,    4316,    2820
4219,    2841,    4317,    4318,    2821
4220,    2842,    4319,    4320,    2822
4221,    2843,    4321,    4322,    2823
4222,    2844,    4323,    4324,    2824
4223,    2845,    4325,    4326,    2825
4224,    2846,    4327,    4328,    2826
4225,    2847,    4329,    4330,    2827
4226,    4291,    4331,    4332,    4292
4227,    4293,    4333,    4334,    4294
4228,    4295,    4335,    4336,    4296
4229,    4297,    4337,    4338,    4298
4230,    4299,    4339,    4340,    4300
4231,    4301,    4341,    4342,    4302
4232,    4303,    4343,    4344,    4304
4233,    4305,    4345,    4346,    4306
4234,    4307,    4347,    4348,    4308
4235,    4309,    4349,    4350,    4310
4236,    4311,    4351,    4352,    4312
4237,    4313,    4353,    4354,    4314
4238,    4315,    4355,    4356,    4316
4239,    4317,    4357,    4358,    4318
4240,    4319,    4359,    4360,    4320
4241,    4321,    4361,    4362,    4322
4242,    4323,    4363,    4364,    4324
4243,    4325,    4365,    4366,    4326
4244,    4327,    4367,    4368,    4328
4245,    4329,    4369,    4370,    4330
4246,    4371,    4372,    4012,    4011
4247,    4373,    4374,    4016,    4015
4248,    4375,    4376,    4020,    4019
4249,    4377,    4378,    4024,    4023
4250,    4379,    4380,    4028,    4027
4251,    4381,    4382,    4032,    4031
4252,    4383,    4384,    4036,    4035
4253,    4385,    4386,    4040,    4039
4254,    4387,    4388,    4044,    4043
4255,    4389,    4390,    4048,    4047
4256,    4391,    4392,    4052,    4051
4257,    4393,    4394,    4056,    4055
4258,    4395,    4396,    4060,    4059
4259,    4397,    4398,    4064,    4063
4260,    4399,    4400,    4068,    4067
4261,    4401,    4402,    4072,    4071
4262,    4403,    4404,    4076,    4075
4263,    4405,    4406,    4080,    4079
4264,    4407,    4408,    4084,    4083
4265,    4409,    4410,    4088,    4087
4266,    4372,    3650,    3630,    4012
4267,    4374,    3651,    3631,    4016
4268,    4376,    3652,    3632,    4020
4269,    4378,    3653,    3633,    4024
4270,    4380,    3654,    3634,    4028
4271,    4382,    3655,    3635,    4032
4272,    4384,    3656,    3636,    4036
4273,    4386,    3657,    3637,    4040
4274,    4388,    3658,    3638,    4044
4275,    4390,    3659,    3639,    4048
4276,    4392,    3660,    3640,    4052
4277,    4394,    3661,    3641,    4056
4278,    4396,    3662,    3642,    4060
4279,    4398,    3663,    3643,    4064
4280,    4400,    3664,    3644,    4068
4281,    4402,    3665,    3645,    4072
4282,    4404,    3666,    3646,    4076
4283,    4406,    3667,    3647,    4080
4284,    4408,    3668,    3648,    4084
4285,    4410,    3669,    3649,    4088
4286,    3650,    4411,    4091,    3630
4287,    3651,    4412,    4093,    3631
4288,    3652,    4413,    4095,    3632
4289,    3653,    4414,    4097,    3633
4290,    3654,    4415,    4099,    3634
4291,    3655,    4416,    4101,    3635
4292,    3656,    4417,    4103,    3636
4293,    3657,    4418,    4105,    3637
4294,    3658,    4419,    4107,    3638
4295,    3659,    4420,    4109,    3639
4296,    3660,    4421,    4111,    3640
4297,    3661,    4422,    4113,    3641
4298,    3662,    4423,    4115,    3642
4299,    3663,    4424,    4117,    3643
4300,    3664,    4425,    4119,    3644
4301,    3665,    4426,    4121,    3645
4302,    3666,    4427,    4123,    3646
4303,    3667,    4428,    4125,    3647
4304,    3668,    4429,    4127,    3648
4305,    3669,    4430,    4129,    3649
4306,    4411,    3249,    3229,    4091
4307,    4412,    3250,    3230,    4093
4308,    4413,    3251,    3231,    4095
4309,    4414,    3252,    3232,    4097
4310,    4415,    3253,    3233,    4099
4311,    4416,    3254,    3234,    4101
4312,    4417,    3255,    3235,    4103
4313,    4418,    3256,    3236,    4105
4314,    4419,    3257,    3237,    4107
4315,    4420,    3258,    3238,    4109
4316,    4421,    3259,    3239,    4111
4317,    4422,    3260,    3240,    4113
4318,    4423,    3261,    3241,    4115
4319,    4424,    3262,    3242,    4117
4320,    4425,    3263,    3243,    4119
4321,    4426,    3264,    3244,    4121
4322,    4427,    3265,    3245,    4123
4323,    4428,    3266,    3246,    4125
4324,    4429,    3267,    3247,    4127
4325,    4430,    3268,    3248,    4129
4326,    3249,    4431,    4131,    3229
4327,    3250,    4432,    4133,    3230
4328,    3251,    4433,    4135,    3231
4329,    3252,    4434,    4137,    3232
4330,    3253,    4435,    4139,    3233
4331,    3254,    4436,    4141,    3234
4332,    3255,    4437,    4143,    3235
4333,    3256,    4438,    4145,    3236
4334,    3257,    4439,    4147,    3237
4335,    3258,    4440,    4149,    3238
4336,    3259,    4441,    4151,    3239
4337,    3260,    4442,    4153,    3240
4338,    3261,    4443,    4155,    3241
4339,    3262,    4444,    4157,    3242
4340,    3263,    4445,    4159,    3243
4341,    3264,    4446,    4161,    3244
4342,    3265,    4447,    4163,    3245
4343,    3266,    4448,    4165,    3246
4344,    3267,    4449,    4167,    3247
4345,    3268,    4450,    4169,    3248
4346,    4431,    4451,    4171,    4131
4347,    4432,    4452,    4173,    4133
4348,    4433,    4453,    4175,    4135
4349,    4434,    4454,    4177,    4137
4350,    4435,    4455,    4179,    4139
4351,    4436,    4456,    4181,    4141
4352,    4437,    4457,    4183,    4143
4353,    4438,    4458,    4185,    4145
4354,    4439,    4459,    4187,    4147
4355,    4440,    4460,    4189,    4149
4356,    4441,    4461,    4191,    4151
4357,    4442,    4462,    4193,    4153
4358,    4443,    4463,    4195,    4155
4359,    4444,    4464,    4197,    4157
4360,    4445,    4465,    4199,    4159
4361,    4446,    4466,    4201,    4161
4362,    4447,    4467,    4203,    4163
4363,    4448,    4468,    4205,    4165
4364,    4449,    4469,    4207,    4167
4365,    4450,    4470,    4209,    4169
4366,    4451,    4471,    4211,    4171
4367,    4452,    4472,    4213,    4173
4368,    4453,    4473,    4215,    4175
4369,    4454,    4474,    4217,    4177
4370,    4455,    4475,    4219,    4179
4371,    4456,    4476,    4221,    4181
4372,    4457,    4477,    4223,    4183
4373,    4458,    4478,    4225,    4185
4374,    4459,    4479,    4227,    4187
4375,    4460,    4480,    4229,    4189
4376,    4461,    4481,    4231,    4191
4377,    4462,    4482,    4233,    4193
4378,    4463,    4483,    4235,    4195
4379,    4464,    4484,    4237,    4197
4380,    4465,    4485,    4239,    4199
4381,    4466,    4486,    4241,    4201
4382,    4467,    4487,    4243,    4203
4383,    4468,    4488,    4245,    4205
4384,    4469,    4489,    4247,    4207
4385,    4470,    4490,    4249,    4209
4386,    4471,    2447,    2427,    4211
4387,    4472,    2448,    2428,    4213
4388,    4473,    2449,    2429,    4215
4389,    4474,    2450,    2430,    4217
4390,    4475,    2451,    2431,    4219
4391,    4476,    2452,    2432,    4221
4392,    4477,    2453,    2433,    4223
4393,    4478,    2454,    2434,    4225
4394,    4479,    2455,    2435,    4227
4395,    4480,    2456,    2436,    4229
4396,    4481,    2457,    2437,    4231
4397,    4482,    2458,    2438,    4233
4398,    4483,    2459,    2439,    4235
4399,    4484,    2460,    2440,    4237
4400,    4485,    2461,    2441,    4239
4401,    4486,    2462,    2442,    4241
4402,    4487,    2463,    2443,    4243
4403,    4488,    2464,    2444,    4245
4404,    4489,    2465,    2445,    4247
4405,    4490,    2466,    2446,    4249
4406,    2447,    4491,    4251,    2427
4407,    2448,    4492,    4253,    2428
4408,    2449,    4493,    4255,    2429
4409,    2450,    4494,    4257,    2430
4410,    2451,    4495,    4259,    2431
4411,    2452,    4496,    4261,    2432
4412,    2453,    4497,    4263,    2433
4413,    2454,    4498,    4265,    2434
4414,    2455,    4499,    4267,    2435
4415,    2456,    4500,    4269,    2436
4416,    2457,    4501,    4271,    2437
4417,    2458,    4502,    4273,    2438
4418,    2459,    4503,    4275,    2439
4419,    2460,    4504,    4277,    2440
4420,    2461,    4505,    4279,    2441
4421,    2462,    4506,    4281,    2442
4422,    2463,    4507,    4283,    2443
4423,    2464,    4508,    4285,    2444
4424,    2465,    4509,    4287,    2445
4425,    2466,    4510,    4289,    2446
4426,    4491,    2848,    2828,    4251
4427,    4492,    2849,    2829,    4253
4428,    4493,    2850,    2830,    4255
4429,    4494,    2851,    2831,    4257
4430,    4495,    2852,    2832,    4259
4431,    4496,    2853,    2833,    4261
4432,    4497,    2854,    2834,    4263
4433,    4498,    2855,    2835,    4265
4434,    4499,    2856,    2836,    4267
4435,    4500,    2857,    2837,    4269
4436,    4501,    2858,    2838,    4271
4437,    4502,    2859,    2839,    4273
4438,    4503,    2860,    2840,    4275
4439,    4504,    2861,    2841,    4277
4440,    4505,    2862,    2842,    4279
4441,    4506,    2863,    2843,    4281
4442,    4507,    2864,    2844,    4283
4443,    4508,    2865,    2845,    4285
4444,    4509,    2866,    2846,    4287
4445,    4510,    2867,    2847,    4289
4446,    2848,    4511,    4291,    2828
4447,    2849,    4512,    4293,    2829
4448,    2850,    4513,    4295,    2830
4449,    2851,    4514,    4297,    2831
4450,    2852,    4515,    4299,    2832
4451,    2853,    4516,    4301,    2833
4452,    2854,    4517,    4303,    2834
4453,    2855,    4518,    4305,    2835
4454,    2856,    4519,    4307,    2836
4455,    2857,    4520,    4309,    2837
4456,    2858,    4521,    4311,    2838
4457,    2859,    4522,    4313,    2839
4458,    2860,    4523,    4315,    2840
4459,    2861,    4524,    4317,    2841
4460,    2862,    4525,    4319,    2842
4461,    2863,    4526,    4321,    2843
4462,    2864,    4527,    4323,    2844
4463,    2865,    4528,    4325,    2845
4464,    2866,    4529,    4327,    2846
4465,    2867,    4530,    4329,    2847
4466,    4511,    4531,    4331,    4291
4467,    4512,    4532,    4333,    4293
4468,    4513,    4533,    4335,    4295
4469,    4514,    4534,    4337,    4297
4470,    4515,    4535,    4339,    4299
4471,    4516,    4536,    4341,    4301
4472,    4517,    4537,    4343,    4303
4473,    4518,    4538,    4345,    4305
4474,    4519,    4539,    4347,    4307
4475,    4520,    4540,    4349,    4309
4476,    4521,    4541,    4351,    4311
4477,    4522,    4542,    4353,    4313
4478,    4523,    4543,    4355,    4315
4479,    4524,    4544,    4357,    4317
4480,    4525,    4545,    4359,    4319
4481,    4526,    4546,    4361,    4321
4482,    4527,    4547,    4363,    4323
4483,    4528,    4548,    4365,    4325
4484,    4529,    4549,    4367,    4327
4485,    4530,    4550,    4369,    4329
4486,    4551,    4552,    4372,    4371
4487,    4553,    4554,    4374,    4373
4488,    4555,    4556,    4376,    4375
4489,    4557,    4558,    4378,    4377
4490,    4559,    4560,    4380,    4379
4491,    4561,    4562,    4382,    4381
4492,    4563,    4564,    4384,    4383
4493,    4565,    4566,    4386,    4385
4494,    4567,    4568,    4388,    4387
4495,    4569,    4570,    4390,    4389
4496,    4571,    4572,    4392,    4391
4497,    4573,    4574,    4394,    4393
4498,    4575,    4576,    4396,    4395
4499,    4577,    4578,    4398,    4397
4500,    4579,    4580,    4400,    4399
4501,    4581,    4582,    4402,    4401
4502,    4583,    4584,    4404,    4403
4503,    4585,    4586,    4406,    4405
4504,    4587,    4588,    4408,    4407
4505,    4589,    4590,    4410,    4409
4506,    4552,    3670,    3650,    4372
4507,    4554,    3671,    3651,    4374
4508,    4556,    3672,    3652,    4376
4509,    4558,    3673,    3653,    4378
4510,    4560,    3674,    3654,    4380
4511,    4562,    3675,    3655,    4382
4512,    4564,    3676,    3656,    4384
4513,    4566,    3677,    3657,    4386
4514,    4568,    3678,    3658,    4388
4515,    4570,    3679,    3659,    4390
4516,    4572,    3680,    3660,    4392
4517,    4574,    3681,    3661,    4394
4518,    4576,    3682,    3662,    4396
4519,    4578,    3683,    3663,    4398
4520,    4580,    3684,    3664,    4400
4521,    4582,    3685,    3665,    4402
4522,    4584,    3686,    3666,    4404
4523,    4586,    3687,    3667,    4406
4524,    4588,    3688,    3668,    4408
4525,    4590,    3689,    3669,    4410
4526,    3670,    4591,    4411,    3650
4527,    3671,    4592,    4412,    3651
4528,    3672,    4593,    4413,    3652
4529,    3673,    4594,    4414,    3653
4530,    3674,    4595,    4415,    3654
4531,    3675,    4596,    4416,    3655
4532,    3676,    4597,    4417,    3656
4533,    3677,    4598,    4418,    3657
4534,    3678,    4599,    4419,    3658
4535,    3679,    4600,    4420,    3659
4536,    3680,    4601,    4421,    3660
4537,    3681,    4602,    4422,    3661
4538,    3682,    4603,    4423,    3662
4539,    3683,    4604,    4424,    3663
4540,    3684,    4605,    4425,    3664
4541,    3685,    4606,    4426,    3665
4542,    3686,    4607,    4427,    3666
4543,    3687,    4608,    4428,    3667
4544,    3688,    4609,    4429,    3668
4545,    3689,    4610,    4430,    3669
4546,    4591,    3269,    3249,    4411
4547,    4592,    3270,    3250,    4412
4548,    4593,    3271,    3251,    4413
4549,    4594,    3272,    3252,    4414
4550,    4595,    3273,    3253,    4415
4551,    4596,    3274,    3254,    4416
4552,    4597,    3275,    3255,    4417
4553,    4598,    3276,    3256,    4418
4554,    4599,    3277,    3257,    4419
4555,    4600,    3278,    3258,    4420
4556,    4601,    3279,    3259,    4421
4557,    4602,    3280,    3260,    4422
4558,    4603,    3281,    3261,    4423
4559,    4604,    3282,    3262,    4424
4560,    4605,    3283,    3263,    4425
4561,    4606,    3284,    3264,    4426
4562,    4607,    3285,    3265,    4427
4563,    4608,    3286,    3266,    4428
4564,    4609,    3287,    3267,    4429
4565,    4610,    3288,    3268,    4430
4566,    3269,    4611,    4431,    3249
4567,    3270,    4612,    4432,    3250
4568,    3271,    4613,    4433,    3251
4569,    3272,    4614,    4434,    3252
4570,    3273,    4615,    4435,    3253
4571,    3274,    4616,    4436,    3254
4572,    3275,    4617,    4437,    3255
4573,    3276,    4618,    4438,    3256
4574,    3277,    4619,    4439,    3257
4575,    3278,    4620,    4440,    3258
4576,    3279,    4621,    4441,    3259
4577,    3280,    4622,    4442,    3260
4578,    3281,    4623,    4443,    3261
4579,    3282,    4624,    4444,    3262
4580,    3283,    4625,    4445,    3263
4581,    3284,    4626,    4446,    3264
4582,    3285,    4627,    4447,    3265
4583,    3286,    4628,    4448,    3266
4584,    3287,    4629,    4449,    3267
4585,    3288,    4630,    4450,    3268
4586,    4611,    4631,    4451,    4431
4587,    4612,    4632,    4452,    4432
4588,    4613,    4633,    4453,    4433
4589,    4614,    4634,    4454,    4434
4590,    4615,    4635,    4455,    4435
4591,    4616,    4636,    4456,    4436
4592,    4617,    4637,    4457,    4437
4593,    4618,    4638,    4458,    4438
4594,    4619,    4639,    4459,    4439
4595,    4620,    4640,    4460,    4440
4596,    4621,    4641,    4461,    4441
4597,    4622,    4642,    4462,    4442
4598,    4623,    4643,    4463,    4443
4599,    4624,    4644,    4464,    4444
4600,    4625,    4645,    4465,    4445
4601,    4626,    4646,    4466,    4446
4602,    4627,    4647,    4467,    4447
4603,    4628,    4648,    4468,    4448
4604,    4629,    4649,    4469,    4449
4605,    4630,    4650,    4470,    4450
4606,    4631,    4651,    4471,    4451
4607,    4632,    4652,    4472,    4452
4608,    4633,    4653,    4473,    4453
4609,    4634,    4654,    4474,    4454
4610,    4635,    4655,    4475,    4455
4611,    4636,    4656,    4476,    4456
4612,    4637,    4657,    4477,    4457
4613,    4638,    4658,    4478,    4458
4614,    4639,    4659,    4479,    4459
4615,    4640,    4660,    4480,    4460
4616,    4641,    4661,    4481,    4461
4617,    4642,    4662,    4482,    4462
4618,    4643,    4663,    4483,    4463
4619,    4644,    4664,    4484,    4464
4620,    4645,    4665,    4485,    4465
4621,    4646,    4666,    4486,    4466
4622,    4647,    4667,    4487,    4467
4623,    4648,    4668,    4488,    4468
4624,    4649,    4669,    4489,    4469
4625,    4650,    4670,    4490,    4470
4626,    4651,    2467,    2447,    4471
4627,    4652,    2468,    2448,    4472
4628,    4653,    2469,    2449,    4473
4629,    4654,    2470,    2450,    4474
4630,    4655,    2471,    2451,    4475
4631,    4656,    2472,    2452,    4476
4632,    4657,    2473,    2453,    4477
4633,    4658,    2474,    2454,    4478
4634,    4659,    2475,    2455,    4479
4635,    4660,    2476,    2456,    4480
4636,    4661,    2477,    2457,    4481
4637,    4662,    2478,    2458,    4482
4638,    4663,    2479,    2459,    4483
4639,    4664,    2480,    2460,    4484
4640,    4665,    2481,    2461,    4485
4641,    4666,    2482,    2462,    4486
4642,    4667,    2483,    2463,    4487
4643,    4668,    2484,    2464,    4488
4644,    4669,    2485,    2465,    4489
4645,    4670,    2486,    2466,    4490
4646,    2467,    4671,    4491,    2447
4647,    2468,    4672,    4492,    2448
4648,    2469,    4673,    4493,    2449
4649,    2470,    4674,    4494,    2450
4650,    2471,    4675,    4495,    2451
4651,    2472,    4676,    4496,    2452
4652,    2473,    4677,    4497,    2453
4653,    2474,    4678,    4498,    2454
4654,    2475,    4679,    4499,    2455
4655,    2476,    4680,    4500,    2456
4656,    2477,    4681,    4501,    2457
4657,    2478,    4682,    4502,    2458
4658,    2479,    4683,    4503,    2459
4659,    2480,    4684,    4504,    2460
4660,    2481,    4685,    4505,    2461
4661,    2482,    4686,    4506,    2462
4662,    2483,    4687,    4507,    2463
4663,    2484,    4688,    4508,    2464
4664,    2485,    4689,    4509,    2465
4665,    2486,    4690,    4510,    2466
4666,    4671,    2868,    2848,    4491
4667,    4672,    2869,    2849,    4492
4668,    4673,    2870,    2850,    4493
4669,    4674,    2871,    2851,    4494
4670,    4675,    2872,    2852,    4495
4671,    4676,    2873,    2853,    4496
4672,    4677,    2874,    2854,    4497
4673,    4678,    2875,    2855,    4498
4674,    4679,    2876,    2856,    4499
4675,    4680,    2877,    2857,    4500
4676,    4681,    2878,    2858,    4501
4677,    4682,    2879,    2859,    4502
4678,    4683,    2880,    2860,    4503
4679,    4684,    2881,    2861,    4504
4680,    4685,    2882,    2862,    4505
4681,    4686,    2883,    2863,    4506
4682,    4687,    2884,    2864,    4507
4683,    4688,    2885,    2865,    4508
4684,    4689,    2886,    2866,    4509
4685,    4690,    2887,    2867,    4510
4686,    2868,    4691,    4511,    2848
4687,    2869,    4692,    4512,    2849
4688,    2870,    4693,    4513,    2850
4689,    2871,    4694,    4514,    2851
4690,    2872,    4695,    4515,    2852
4691,    2873,    4696,    4516,    2853
4692,    2874,    4697,    4517,    2854
4693,    2875,    4698,    4518,    2855
4694,    2876,    4699,    4519,    2856
4695,    2877,    4700,    4520,    2857
4696,    2878,    4701,    4521,    2858
4697,    2879,    4702,    4522,    2859
4698,    2880,    4703,    4523,    2860
4699,    2881,    4704,    4524,    2861
4700,    2882,    4705,    4525,    2862
4701,    2883,    4706,    4526,    2863
4702,    2884,    4707,    4527,    2864
4703,    2885,    4708,    4528,    2865
4704,    2886,    4709,    4529,    2866
4705,    2887,    4710,    4530,    2867
4706,    4691,    4711,    4531,    4511
4707,    4692,    4712,    4532,    4512
4708,    4693,    4713,    4533,    4513
4709,    4694,    4714,    4534,    4514
4710,    4695,    4715,    4535,    4515
4711,    4696,    4716,    4536,    4516
4712,    4697,    4717,    4537,    4517
4713,    4698,    4718,    4538,    4518
4714,    4699,    4719,    4539,    4519
4715,    4700,    4720,    4540,    4520
4716,    4701,    4721,    4541,    4521
4717,    4702,    4722,    4542,    4522
4718,    4703,    4723,    4543,    4523
4719,    4704,    4724,    4544,    4524
4720,    4705,    4725,    4545,    4525
4721,    4706,    4726,    4546,    4526
4722,    4707,    4727,    4547,    4527
4723,    4708,    4728,    4548,    4528
4724,    4709,    4729,    4549,    4529
4725,    4710,    4730,    4550,    4530
4726,    4731,    4732,    4552,    4551
4727,    4733,    4734,    4554,    4553
4728,    4735,    4736,    4556,    4555
4729,    4737,    4738,    4558,    4557
4730,    4739,    4740,    4560,    4559
4731,    4741,    4742,    4562,    4561
4732,    4743,    4744,    4564,    4563
4733,    4745,    4746,    4566,    4565
4734,    4747,    4748,    4568,    4567
4735,    4749,    4750,    4570,    4569
4736,    4751,    4752,    4572,    4571
4737,    4753,    4754,    4574,    4573
4738,    4755,    4756,    4576,    4575
4739,    4757,    4758,    4578,    4577
4740,    4759,    4760,    4580,    4579
4741,    4761,    4762,    4582,    4581
4742,    4763,    4764,    4584,    4583
4743,    4765,    4766,    4586,    4585
4744,    4767,    4768,    4588,    4587
4745,    4769,    4770,    4590,    4589
4746,    4732,    3690,    3670,    4552
4747,    4734,    3691,    3671,    4554
4748,    4736,    3692,    3672,    4556
4749,    4738,    3693,    3673,    4558
4750,    4740,    3694,    3674,    4560
4751,    4742,    3695,    3675,    4562
4752,    4744,    3696,    3676,    4564
4753,    4746,    3697,    3677,    4566
4754,    4748,    3698,    3678,    4568
4755,    4750,    3699,    3679,    4570
4756,    4752,    3700,    3680,    4572
4757,    4754,    3701,    3681,    4574
4758,    4756,    3702,    3682,    4576
4759,    4758,    3703,    3683,    4578
4760,    4760,    3704,    3684,    4580
4761,    4762,    3705,    3685,    4582
4762,    4764,    3706,    3686,    4584
4763,    4766,    3707,    3687,    4586
4764,    4768,    3708,    3688,    4588
4765,    4770,    3709,    3689,    4590
4766,    3690,    4771,    4591,    3670
4767,    3691,    4772,    4592,    3671
4768,    3692,    4773,    4593,    3672
4769,    3693,    4774,    4594,    3673
4770,    3694,    4775,    4595,    3674
4771,    3695,    4776,    4596,    3675
4772,    3696,    4777,    4597,    3676
4773,    3697,    4778,    4598,    3677
4774,    3698,    4779,    4599,    3678
4775,    3699,    4780,    4600,    3679
4776,    3700,    4781,    4601,    3680
4777,    3701,    4782,    4602,    3681
4778,    3702,    4783,    4603,    3682
4779,    3703,    4784,    4604,    3683
4780,    3704,    4785,    4605,    3684
4781,    3705,    4786,    4606,    3685
4782,    3706,    4787,    4607,    3686
4783,    3707,    4788,    4608,    3687
4784,    3708,    4789,    4609,    3688
4785,    3709,    4790,    4610,    3689
4786,    4771,    3289,    3269,    4591
4787,    4772,    3290,    3270,    4592
4788,    4773,    3291,    3271,    4593
4789,    4774,    3292,    3272,    4594
4790,    4775,    3293,    3273,    4595
4791,    4776,    3294,    3274,    4596
4792,    4777,    3295,    3275,    4597
4793,    4778,    3296,    3276,    4598
4794,    4779,    3297,    3277,    4599
4795,    4780,    3298,    3278,    4600
4796,    4781,    3299,    3279,    4601
4797,    4782,    3300,    3280,    4602
4798,    4783,    3301,    3281,    4603
4799,    4784,    3302,    3282,    4604
4800,    4785,    3303,    3283,    4605
4801,    4786,    3304,    3284,    4606
4802,    4787,    3305,    3285,    4607
4803,    4788,    3306,    3286,    4608
4804,    4789,    3307,    3287,    4609
4805,    4790,    3308,    3288,    4610
4806,    3289,    4791,    4611,    3269
4807,    3290,    4792,    4612,    3270
4808,    3291,    4793,    4613,    3271
4809,    3292,    4794,    4614,    3272
4810,    3293,    4795,    4615,    3273
4811,    3294,    4796,    4616,    3274
4812,    3295,    4797,    4617,    3275
4813,    3296,    4798,    4618,    3276
4814,    3297,    4799,    4619,    3277
4815,    3298,    4800,    4620,    3278
4816,    3299,    4801,    4621,    3279
4817,    3300,    4802,    4622,    3280
4818,    3301,    4803,    4623,    3281
4819,    3302,    4804,    4624,    3282
4820,    3303,    4805,    4625,    3283
4821,    3304,    4806,    4626,    3284
4822,    3305,    4807,    4627,    3285
4823,    3306,    4808,    4628,    3286
4824,    3307,    4809,    4629,    3287
4825,    3308,    4810,    4630,    3288
4826,    4791,    4811,    4631,    4611
4827,    4792,    4812,    4632,    4612
4828,    4793,    4813,    4633,    4613
4829,    4794,    4814,    4634,    4614
4830,    4795,    4815,    4635,    4615
4831,    4796,    4816,    4636,    4616
4832,    4797,    4817,    4637,    4617
4833,    4798,    4818,    4638,    4618
4834,    4799,    4819,    4639,    4619
4835,    4800,    4820,    4640,    4620
4836,    4801,    4821,    4641,    4621
4837,    4802,    4822,    4642,    4622
4838,    4803,    4823,    4643,    4623
4839,    4804,    4824,    4644,    4624
4840,    4805,    4825,    4645,    4625
4841,    4806,    4826,    4646,    4626
4842,    4807,    4827,    4647,    4627
4843,    4808,    4828,    4648,    4628
4844,    4809,    4829,    4649,    4629
4845,    4810,    4830,    4650,    4630
4846,    4811,    4831,    4651,    4631
4847,    4812,    4832,    4652,    4632
4848,    4813,    4833,    4653,    4633
4849,    4814,    4834,    4654,    4634
4850,    4815,    4835,    4655,    4635
4851,    4816,    4836,    4656,    4636
4852,    4817,    4837,    4657,    4637
4853,    4818,    4838,    4658,    4638
4854,    4819,    4839,    4659,    4639
4855,    4820,    4840,    4660,    4640
4856,    4821,    4841,    4661,    4641
4857,    4822,    4842,    4662,    4642
4858,    4823,    4843,    4663,    4643
4859,    4824,    4844,    4664,    4644
4860,    4825,    4845,    4665,    4645
4861,    4826,    4846,    4666,    4646
4862,    4827,    4847,    4667,    4647
4863,    4828,    4848,    4668,    4648
4864,    4829,    4849,    4669,    4649
4865,    4830,    4850,    4670,    4650
4866,    4831,    2487,    2467,    4651
4867,    4832,    2488,    2468,    4652
4868,    4833,    2489,    2469,    4653
4869,    4834,    2490,    2470,    4654
4870,    4835,    2491,    2471,    4655
4871,    4836,    2492,    2472,    4656
4872,    4837,    2493,    2473,    4657
4873,    4838,    2494,    2474,    4658
4874,    4839,    2495,    2475,    4659
4875,    4840,    2496,    2476,    4660
4876,    4841,    2497,    2477,    4661
4877,    4842,    2498,    2478,    4662
4878,    4843,    2499,    2479,    4663
4879,    4844,    2500,    2480,    4664
4880,    4845,    2501,    2481,    4665
4881,    4846,    2502,    2482,    4666
4882,    4847,    2503,    2483,    4667
4883,    4848,    2504,    2484,    4668
4884,    4849,    2505,    2485,    4669
4885,    4850,    2506,    2486,    4670
4886,    2487,    4851,    4671,    2467
4887,    2488,    4852,    4672,    2468
4888,    2489,    4853,    4673,    2469
4889,    2490,    4854,    4674,    2470
4890,    2491,    4855,    4675,    2471
4891,    2492,    4856,    4676,    2472
4892,    2493,    4857,    4677,    2473
4893,    2494,    4858,    4678,    2474
4894,    2495,    4859,    4679,    2475
4895,    2496,    4860,    4680,    2476
4896,    2497,    4861,    4681,    2477
4897,    2498,    4862,    4682,    2478
4898,    2499,    4863,    4683,    2479
4899,    2500,    4864,    4684,    2480
4900,    2501,    4865,    4685,    2481
4901,    2502,    4866,    4686,    2482
4902,    2503,    4867,    4687,    2483
4903,    2504,    4868,    4688,    2484
4904,    2505,    4869,    4689,    2485
4905,    2506,    4870,    4690,    2486
4906,    4851,    2888,    2868,    4671
4907,    4852,    2889,    2869,    4672
4908,    4853,    2890,    2870,    4673
4909,    4854,    2891,    2871,    4674
4910,    4855,    2892,    2872,    4675
4911,    4856,    2893,    2873,    4676
4912,    4857,    2894,    2874,    4677
4913,    4858,    2895,    2875,    4678
4914,    4859,    2896,    2876,    4679
4915,    4860,    2897,    2877,    4680
4916,    4861,    2898,    2878,    4681
4917,    4862,    2899,    2879,    4682
4918,    4863,    2900,    2880,    4683
4919,    4864,    2901,    2881,    4684
4920,    4865,    2902,    2882,    4685
4921,    4866,    2903,    2883,    4686
4922,    4867,    2904,    2884,    4687
4923,    4868,    2905,    2885,    4688
4924,    4869,    2906,    2886,    4689
4925,    4870,    2907,    2887,    4690
4926,    2888,    4871,    4691,    2868
4927,    2889,    4872,    4692,    2869
4928,    2890,    4873,    4693,    2870
4929,    2891,    4874,    4694,    2871
4930,    2892,    4875,    4695,    2872
4931,    2893,    4876,    4696,    2873
4932,    2894,    4877,    4697,    2874
4933,    2895,    4878,    4698,    2875
4934,    2896,    4879,    4699,    2876
4935,    2897,    4880,    4700,    2877
4936,    2898,    4881,    4701,    2878
4937,    2899,    4882,    4702,    2879
4938,    2900,    4883,    4703,    2880
4939,    2901,    4884,    4704,    2881
4940,    2902,    4885,    4705,    2882
4941,    2903,    4886,    4706,    2883
4942,    2904,    4887,    4707,    2884
4943,    2905,    4888,    4708,    2885
4944,    2906,    4889,    4709,    2886
4945,    2907,    4890,    4710,    2887
4946,    4871,    4891,    4711,    4691
4947,    4872,    4892,    4712,    4692
4948,    4873,    4893,    4713,    4693
4949,    4874,    4894,    4714,    4694
4950,    4875,    4895,    4715,    4695
4951,    4876,    4896,    4716,    4696
4952,    4877,    4897,    4717,    4697
4953,    4878,    4898,    4718,    4698
4954,    4879,    4899,    4719,    4699
4955,    4880,    4900,    4720,    4700
4956,    4881,    4901,    4721,    4701
4957,    4882,    4902,    4722,    4702
4958,    4883,    4903,    4723,    4703
4959,    4884,    4904,    4724,    4704
4960,    4885,    4905,    4725,    4705
4961,    4886,    4906,    4726,    4706
4962,    4887,    4907,    4727,    4707
4963,    4888,    4908,    4728,    4708
4964,    4889,    4909,    4729,    4709
4965,    4890,    4910,    4730,    4710
4966,    4911,    4912,    4732,    4731
4967,    4913,    4914,    4734,    4733
4968,    4915,    4916,    4736,    4735
4969,    4917,    4918,    4738,    4737
4970,    4919,    4920,    4740,    4739
4971,    4921,    4922,    4742,    4741
4972,    4923,    4924,    4744,    4743
4973,    4925,    4926,    4746,    4745
4974,    4927,    4928,    4748,    4747
4975,    4929,    4930,    4750,    4749
4976,    4931,    4932,    4752,    4751
4977,    4933,    4934,    4754,    4753
4978,    4935,    4936,    4756,    4755
4979,    4937,    4938,    4758,    4757
4980,    4939,    4940,    4760,    4759
4981,    4941,    4942,    4762,    4761
4982,    4943,    4944,    4764,    4763
4983,    4945,    4946,    4766,    4765
4984,    4947,    4948,    4768,    4767
4985,    4949,    4950,    4770,    4769
4986,    4912,    3710,    3690,    4732
4987,    4914,    3711,    3691,    4734
4988,    4916,    3712,    3692,    4736
4989,    4918,    3713,    3693,    4738
4990,    4920,    3714,    3694,    4740
4991,    4922,    3715,    3695,    4742
4992,    4924,    3716,    3696,    4744
4993,    4926,    3717,    3697,    4746
4994,    4928,    3718,    3698,    4748
4995,    4930,    3719,    3699,    4750
4996,    4932,    3720,    3700,    4752
4997,    4934,    3721,    3701,    4754
4998,    4936,    3722,    3702,    4756
4999,    4938,    3723,    3703,    4758
5000,    4940,    3724,    3704,    4760
5001,    4942,    3725,    3705,    4762
5002,    4944,    3726,    3706,    4764
5003,    4946,    3727,    3707,    4766
5004,    4948,    3728,    3708,    4768
5005,    4950,    3729,    3709,    4770
5006,    3710,    4951,    4771,    3690
5007,    3711,    4952,    4772,    3691
5008,    3712,    4953,    4773,    3692
5009,    3713,    4954,    4774,    3693
5010,    3714,    4955,    4775,    3694
5011,    3715,    4956,    4776,    3695
5012,    3716,    4957,    4777,    3696
5013,    3717,    4958,    4778,    3697
5014,    3718,    4959,    4779,    3698
5015,    3719,    4960,    4780,    3699
5016,    3720,    4961,    4781,    3700
5017,    3721,    4962,    4782,    3701
5018,    3722,    4963,    4783,    3702
5019,    3723,    4964,    4784,    3703
5020,    3724,    4965,    4785,    3704
5021,    3725,    4966,    4786,    3705
5022,    3726,    4967,    4787,    3706
5023,    3727,    4968,    4788,    3707
5024,    3728,    4969,    4789,    3708
5025,    3729,    4970,    4790,    3709
5026,    4951,    3309,    3289,    4771
5027,    4952,    3310,    3290,    4772
5028,    4953,    3311,    3291,    4773
5029,    4954,    3312,    3292,    4774
5030,    4955,    3313,    3293,    4775
5031,    4956,    3314,    3294,    4776
5032,    4957,    3315,    3295,    4777
5033,    4958,    3316,    3296,    4778
5034,    4959,    3317,    3297,    4779
5035,    4960,    3318,    3298,    4780
5036,    4961,    3319,    3299,    4781
5037,    4962,    3320,    3300,    4782
5038,    4963,    3321,    3301,    4783
5039,    4964,    3322,    3302,    4784
5040,    4965,    3323,    3303,    4785
5041,    4966,    3324,    3304,    4786
5042,    4967,    3325,    3305,    4787
5043,    4968,    3326,    3306,    4788
5044,    4969,    3327,    3307,    4789
5045,    4970,    3328,    3308,    4790
5046,    3309,    4971,    4791,    3289
5047,    3310,    4972,    4792,    3290
5048,    3311,    4973,    4793,    3291
5049,    3312,    4974,    4794,    3292
5050,    3313,    4975,    4795,    3293
5051,    3314,    4976,    4796,    3294
5052,    3315,    4977,    4797,    3295
5053,    3316,    4978,    4798,    3296
5054,    3317,    4979,    4799,    3297
5055,    3318,    4980,    4800,    3298
5056,    3319,    4981,    4801,    3299
5057,    3320,    4982,    4802,    3300
5058,    3321,    4983,    4803,    3301
5059,    3322,    4984,    4804,    3302
5060,    3323,    4985,    4805,    3303
5061,    3324,    4986,    4806,    3304
5062,    3325,    4987,    4807,    3305
5063,    3326,    4988,    4808,    3306
5064,    3327,    4989,    4809,    3307
5065,    3328,    4990,    4810,    3308
5066,    4971,    4991,    4811,    4791
5067,    4972,    4992,    4812,    4792
5068,    4973,    4993,    4813,    4793
5069,    4974,    4994,    4814,    4794
5070,    4975,    4995,    4815,    4795
5071,    4976,    4996,    4816,    4796
5072,    4977,    4997,    4817,    4797
5073,    4978,    4998,    4818,    4798
5074,    4979,    4999,    4819,    4799
5075,    4980,    5000,    4820,    4800
5076,    4981,    5001,    4821,    4801
5077,    4982,    5002,    4822,    4802
5078,    4983,    5003,    4823,    4803
5079,    4984,    5004,    4824,    4804
5080,    4985,    5005,    4825,    4805
5081,    4986,    5006,    4826,    4806
5082,    4987,    5007,    4827,    4807
5083,    4988,    5008,    4828,    4808
5084,    4989,    5009,    4829,    4809
5085,    4990,    5010,    4830,    4810
5086,    4991,    5011,    4831,    4811
5087,    4992,    5012,    4832,    4812
5088,    4993,    5013,    4833,    4813
5089,    4994,    5014,    4834,    4814
5090,    4995,    5015,    4835,    4815
5091,    4996,    5016,    4836,    4816
5092,    4997,    5017,    4837,    4817
5093,    4998,    5018,    4838,    4818
5094,    4999,    5019,    4839,    4819
5095,    5000,    5020,    4840,    4820
5096,    5001,    5021,    4841,    4821
5097,    5002,    5022,    4842,    4822
5098,    5003,    5023,    4843,    4823
5099,    5004,    5024,    4844,    4824
5100,    5005,    5025,    4845,    4825
5101,    5006,    5026,    4846,    4826
5102,    5007,    5027,    4847,    4827
5103,    5008,    5028,    4848,    4828
5104,    5009,    5029,    4849,    4829
5105,    5010,    5030,    4850,    4830
5106,    5011,    2507,    2487,    4831
5107,    5012,    2508,    2488,    4832
5108,    5013,    2509,    2489,    4833
5109,    5014,    2510,    2490,    4834
5110,    5015,    2511,    2491,    4835
5111,    5016,    2512,    2492,    4836
5112,    5017,    2513,    2493,    4837
5113,    5018,    2514,    2494,    4838
5114,    5019,    2515,    2495,    4839
5115,    5020,    2516,    2496,    4840
5116,    5021,    2517,    2497,    4841
5117,    5022,    2518,    2498,    4842
5118,    5023,    2519,    2499,    4843
5119,    5024,    2520,    2500,    4844
5120,    5025,    2521,    2501,    4845
5121,    5026,    2522,    2502,    4846
5122,    5027,    2523,    2503,    4847
5123,    5028,    2524,    2504,    4848
5124,    5029,    2525,    2505,    4849
5125,    5030,    2526,    2506,    4850
5126,    2507,    5031,    4851,    2487
5127,    2508,    5032,    4852,    2488
5128,    2509,    5033,    4853,    2489
5129,    2510,    5034,    4854,    2490
5130,    2511,    5035,    4855,    2491
5131,    2512,    5036,    4856,    2492
5132,    2513,    5037,    4857,    2493
5133,    2514,    5038,    4858,    2494
5134,    2515,    5039,    4859,    2495
5135,    2516,    5040,    4860,    2496
5136,    2517,    5041,    4861,    2497
5137,    2518,    5042,    4862,    2498
5138,    2519,    5043,    4863,    2499
5139,    2520,    5044,    4864,    2500
5140,    2521,    5045,    4865,    2501
5141,    2522,    5046,    4866,    2502
5142,    2523,    5047,    4867,    2503
5143,    2524,    5048,    4868,    2504
5144,    2525,    5049,    4869,    2505
5145,    2526,    5050,    4870,    2506
5146,    5031,    2908,    2888,    4851
5147,    5032,    2909,    2889,    4852
5148,    5033,    2910,    2890,    4853
5149,    5034,    2911,    2891,    4854
5150,    5035,    2912,    2892,    4855
5151,    5036,    2913,    2893,    4856
5152,    5037,    2914,    2894,    4857
5153,    5038,    2915,    2895,    4858
5154,    5039,    2916,    2896,    4859
5155,    5040,    2917,    2897,    4860
5156,    5041,    2918,    2898,    4861
5157,    5042,    2919,    2899,    4862
5158,    5043,    2920,    2900,    4863
5159,    5044,    2921,    2901,    4864
5160,    5045,    2922,    2902,    4865
5161,    5046,    2923,    2903,    4866
5162,    5047,    2924,    2904,    4867
5163,    5048,    2925,    2905,    4868
5164,    5049,    2926,    2906,    4869
5165,    5050,    2927,    2907,    4870
5166,    2908,    5051,    4871,    2888
5167,    2909,    5052,    4872,    2889
5168,    2910,    5053,    4873,    2890
5169,    2911,    5054,    4874,    2891
5170,    2912,    5055,    4875,    2892
5171,    2913,    5056,    4876,    2893
5172,    2914,    5057,    4877,    2894
5173,    2915,    5058,    4878,    2895
5174,    2916,    5059,    4879,    2896
5175,    2917,    5060,    4880,    2897
5176,    2918,    5061,    4881,    2898
5177,    2919,    5062,    4882,    2899
5178,    2920,    5063,    4883,    2900
5179,    2921,    5064,    4884,    2901
5180,    2922,    5065,    4885,    2902
5181,    2923,    5066,    4886,    2903
5182,    2924,    5067,    4887,    2904
5183,    2925,    5068,    4888,    2905
5184,    2926,    5069,    4889,    2906
5185,    2927,    5070,    4890,    2907
5186,    5051,    5071,    4891,    4871
5187,    5052,    5072,    4892,    4872
5188,    5053,    5073,    4893,    4873
5189,    5054,    5074,    4894,    4874
5190,    5055,    5075,    4895,    4875
5191,    5056,    5076,    4896,    4876
5192,    5057,    5077,    4897,    4877
5193,    5058,    5078,    4898,    4878
5194,    5059,    5079,    4899,    4879
5195,    5060,    5080,    4900,    4880
5196,    5061,    5081,    4901,    4881
5197,    5062,    5082,    4902,    4882
5198,    5063,    5083,    4903,    4883
5199,    5064,    5084,    4904,    4884
5200,    5065,    5085,    4905,    4885
5201,    5066,    5086,    4906,    4886
5202,    5067,    5087,    4907,    4887
5203,    5068,    5088,    4908,    4888
5204,    5069,    5089,    4909,    4889
5205,    5070,    5090,    4910,    4890
5206,    5091,    5092,    4912,    4911
5207,    5093,    5094,    4914,    4913
5208,    5095,    5096,    4916,    4915
5209,    5097,    5098,    4918,    4917
5210,    5099,    5100,    4920,    4919
5211,    5101,    5102,    4922,    4921
5212,    5103,    5104,    4924,    4923
5213,    5105,    5106,    4926,    4925
5214,    5107,    5108,    4928,    4927
5215,    5109,    5110,    4930,    4929
5216,    5111,    5112,    4932,    4931
5217,    5113,    5114,    4934,    4933
5218,    5115,    5116,    4936,    4935
5219,    5117,    5118,    4938,    4937
5220,    5119,    5120,    4940,    4939
5221,    5121,    5122,    4942,    4941
5222,    5123,    5124,    4944,    4943
5223,    5125,    5126,    4946,    4945
5224,    5127,    5128,    4948,    4947
5225,    5129,    5130,    4950,    4949
5226,    5092,    3730,    3710,    4912
5227,    5094,    3731,    3711,    4914
5228,    5096,    3732,    3712,    4916
5229,    5098,    3733,    3713,    4918
5230,    5100,    3734,    3714,    4920
5231,    5102,    3735,    3715,    4922
5232,    5104,    3736,    3716,    4924
5233,    5106,    3737,    3717,    4926
5234,    5108,    3738,    3718,    4928
5235,    5110,    3739,    3719,    4930
5236,    5112,    3740,    3720,    4932
5237,    5114,    3741,    3721,    4934
5238,    5116,    3742,    3722,    4936
5239,    5118,    3743,    3723,    4938
5240,    5120,    3744,    3724,    4940
5241,    5122,    3745,    3725,    4942
5242,    5124,    3746,    3726,    4944
5243,    5126,    3747,    3727,    4946
5244,    5128,    3748,    3728,    4948
5245,    5130,    3749,    3729,    4950
5246,    3730,    5131,    4951,    3710
5247,    3731,    5132,    4952,    3711
5248,    3732,    5133,    4953,    3712
5249,    3733,    5134,    4954,    3713
5250,    3734,    5135,    4955,    3714
5251,    3735,    5136,    4956,    3715
5252,    3736,    5137,    4957,    3716
5253,    3737,    5138,    4958,    3717
5254,    3738,    5139,    4959,    3718
5255,    3739,    5140,    4960,    3719
5256,    3740,    5141,    4961,    3720
5257,    3741,    5142,    4962,    3721
5258,    3742,    5143,    4963,    3722
5259,    3743,    5144,    4964,    3723
5260,    3744,    5145,    4965,    3724
5261,    3745,    5146,    4966,    3725
5262,    3746,    5147,    4967,    3726
5263,    3747,    5148,    4968,    3727
5264,    3748,    5149,    4969,    3728
5265,    3749,    5150,    4970,    3729
5266,    5131,    3329,    3309,    4951
5267,    5132,    3330,    3310,    4952
5268,    5133,    3331,    3311,    4953
5269,    5134,    3332,    3312,    4954
5270,    5135,    3333,    3313,    4955
5271,    5136,    3334,    3314,    4956
5272,    5137,    3335,    3315,    4957
5273,    5138,    3336,    3316,    4958
5274,    5139,    3337,    3317,    4959
5275,    5140,    3338,    3318,    4960
5276,    5141,    3339,    3319,    4961
5277,    5142,    3340,    3320,    4962
5278,    5143,    3341,    3321,    4963
5279,    5144,    3342,    3322,    4964
5280,    5145,    3343,    3323,    4965
5281,    5146,    3344,    3324,    4966
5282,    5147,    3345,    3325,    4967
5283,    5148,    3346,    3326,    4968
5284,    5149,    3347,    3327,    4969
5285,    5150,    3348,    3328,    4970
5286,    3329,    5151,    4971,    3309
5287,    3330,    5152,    4972,    3310
5288,    3331,    5153,    4973,    3311
5289,    3332,    5154,    4974,    3312
5290,    3333,    5155,    4975,    3313
5291,    3334,    5156,    4976,    3314
5292,    3335,    5157,    4977,    3315
5293,    3336,    5158,    4978,    3316
5294,    3337,    5159,    4979,    3317
5295,    3338,    5160,    4980,    3318
5296,    3339,    5161,    4981,    3319
5297,    3340,    5162,    4982,    3320
5298,    3341,    5163,    4983,    3321
5299,    3342,    5164,    4984,    3322
5300,    3343,    5165,    4985,    3323
5301,    3344,    5166,    4986,    3324
5302,    3345,    5167,    4987,    3325
5303,    3346,    5168,    4988,    3326
5304,    3347,    5169,    4989,    3327
5305,    3348,    5170,    4990,    3328
5306,    5151,    5171,    4991,    4971
5307,    5152,    5172,    4992,    4972
5308,    5153,    5173,    4993,    4973
5309,    5154,    5174,    4994,    4974
5310,    5155,    5175,    4995,    4975
5311,    5156,    5176,    4996,    4976
5312,    5157,    5177,    4997,    4977
5313,    5158,    5178,    4998,    4978
5314,    5159,    5179,    4999,    4979
5315,    5160,    5180,    5000,    4980
5316,    5161,    5181,    5001,    4981
5317,    5162,    5182,    5002,    4982
5318,    5163,    5183,    5003,    4983
5319,    5164,    5184,    5004,    4984
5320,    5165,    5185,    5005,    4985
5321,    5166,    5186,    5006,    4986
5322,    5167,    5187,    5007,    4987
5323,    5168,    5188,    5008,    4988
5324,    5169,    5189,    5009,    4989
5325,    5170,    5190,    5010,    4990
5326,    5171,    5191,    5011,    4991
5327,    5172,    5192,    5012,    4992
5328,    5173,    5193,    5013,    4993
5329,    5174,    5194,    5014,    4994
5330,    5175,    5195,    5015,    4995
5331,    5176,    5196,    5016,    4996
5332,    5177,    5197,    5017,    4997
5333,    5178,    5198,    5018,    4998
5334,    5179,    5199,    5019,    4999
5335,    5180,    5200,    5020,    5000
5336,    5181,    5201,    5021,    5001
5337,    5182,    5202,    5022,    5002
5338,    5183,    5203,    5023,    5003
5339,    5184,    5204,    5024,    5004
5340,    5185,    5205,    5025,    5005
5341,    5186,    5206,    5026,    5006
5342,    5187,    5207,    5027,    5007
5343,    5188,    5208,    5028,    5008
5344,    5189,    5209,    5029,    5009
5345,    5190,    5210,    5030,    5010
5346,    5191,    2527,    2507,    5011
5347,    5192,    2528,    2508,    5012
5348,    5193,    2529,    2509,    5013
5349,    5194,    2530,    2510,    5014
5350,    5195,    2531,    2511,    5015
5351,    5196,    2532,    2512,    5016
5352,    5197,    2533,    2513,    5017
5353,    5198,    2534,    2514,    5018
5354,    5199,    2535,    2515,    5019
5355,    5200,    2536,    2516,    5020
5356,    5201,    2537,    2517,    5021
5357,    5202,    2538,    2518,    5022
5358,    5203,    2539,    2519,    5023
5359,    5204,    2540,    2520,    5024
5360,    5205,    2541,    2521,    5025
5361,    5206,    2542,    2522,    5026
5362,    5207,    2543,    2523,    5027
5363,    5208,    2544,    2524,    5028
5364,    5209,    2545,    2525,    5029
5365,    5210,    2546,    2526,    5030
5366,    2527,    5211,    5031,    2507
5367,    2528,    5212,    5032,    2508
5368,    2529,    5213,    5033,    2509
5369,    2530,    5214,    5034,    2510
5370,    2531,    5215,    5035,    2511
5371,    2532,    5216,    5036,    2512
5372,    2533,    5217,    5037,    2513
5373,    2534,    5218,    5038,    2514
5374,    2535,    5219,    5039,    2515
5375,    2536,    5220,    5040,    2516
5376,    2537,    5221,    5041,    2517
5377,    2538,    5222,    5042,    2518
5378,    2539,    5223,    5043,    2519
5379,    2540,    5224,    5044,    2520
5380,    2541,    5225,    5045,    2521
5381,    2542,    5226,    5046,    2522
5382,    2543,    5227,    5047,    2523
5383,    2544,    5228,    5048,    2524
5384,    2545,    5229,    5049,    2525
5385,    2546,    5230,    5050,    2526
5386,    5211,    2928,    2908,    5031
5387,    5212,    2929,    2909,    5032
5388,    5213,    2930,    2910,    5033
5389,    5214,    2931,    2911,    5034
5390,    5215,    2932,    2912,    5035
5391,    5216,    2933,    2913,    5036
5392,    5217,    2934,    2914,    5037
5393,    5218,    2935,    2915,    5038
5394,    5219,    2936,    2916,    5039
5395,    5220,    2937,    2917,    5040
5396,    5221,    2938,    2918,    5041
5397,    5222,    2939,    2919,    5042
5398,    5223,    2940,    2920,    5043
5399,    5224,    2941,    2921,    5044
5400,    5225,    2942,    2922,    5045
5401,    5226,    2943,    2923,    5046
5402,    5227,    2944,    2924,    5047
5403,    5228,    2945,    2925,    5048
5404,    5229,    2946,    2926,    5049
5405,    5230,    2947,    2927,    5050
5406,    2928,    5231,    5051,    2908
5407,    2929,    5232,    5052,    2909
5408,    2930,    5233,    5053,    2910
5409,    2931,    5234,    5054,    2911
5410,    2932,    5235,    5055,    2912
5411,    2933,    5236,    5056,    2913
5412,    2934,    5237,    5057,    2914
5413,    2935,    5238,    5058,    2915
5414,    2936,    5239,    5059,    2916
5415,    2937,    5240,    5060,    2917
5416,    2938,    5241,    5061,    2918
5417,    2939,    5242,    5062,    2919
5418,    2940,    5243,    5063,    2920
5419,    2941,    5244,    5064,    2921
5420,    2942,    5245,    5065,    2922
5421,    2943,    5246,    5066,    2923
5422,    2944,    5247,    5067,    2924
5423,    2945,    5248,    5068,    2925
5424,    2946,    5249,    5069,    2926
5425,    2947,    5250,    5070,    2927
5426,    5231,    5251,    5071,    5051
5427,    5232,    5252,    5072,    5052
5428,    5233,    5253,    5073,    5053
5429,    5234,    5254,    5074,    5054
5430,    5235,    5255,    5075,    5055
5431,    5236,    5256,    5076,    5056
5432,    5237,    5257,    5077,    5057
5433,    5238,    5258,    5078,    5058
5434,    5239,    5259,    5079,    5059
5435,    5240,    5260,    5080,    5060
5436,    5241,    5261,    5081,    5061
5437,    5242,    5262,    5082,    5062
5438,    5243,    5263,    5083,    5063
5439,    5244,    5264,    5084,    5064
5440,    5245,    5265,    5085,    5065
5441,    5246,    5266,    5086,    5066
5442,    5247,    5267,    5087,    5067
5443,    5248,    5268,    5088,    5068
5444,    5249,    5269,    5089,    5069
5445,    5250,    5270,    5090,    5070
5446,    5271,    5272,    5092,    5091
5447,    5273,    5274,    5094,    5093
5448,    5275,    5276,    5096,    5095
5449,    5277,    5278,    5098,    5097
5450,    5279,    5280,    5100,    5099
5451,    5281,    5282,    5102,    5101
5452,    5283,    5284,    5104,    5103
5453,    5285,    5286,    5106,    5105
5454,    5287,    5288,    5108,    5107
5455,    5289,    5290,    5110,    5109
5456,    5291,    5292,    5112,    5111
5457,    5293,    5294,    5114,    5113
5458,    5295,    5296,    5116,    5115
5459,    5297,    5298,    5118,    5117
5460,    5299,    5300,    5120,    5119
5461,    5301,    5302,    5122,    5121
5462,    5303,    5304,    5124,    5123
5463,    5305,    5306,    5126,    5125
5464,    5307,    5308,    5128,    5127
5465,    5309,    5310,    5130,    5129
5466,    5272,    3750,    3730,    5092
5467,    5274,    3751,    3731,    5094
5468,    5276,    3752,    3732,    5096
5469,    5278,    3753,    3733,    5098
5470,    5280,    3754,    3734,    5100
5471,    5282,    3755,    3735,    5102
5472,    5284,    3756,    3736,    5104
5473,    5286,    3757,    3737,    5106
5474,    5288,    3758,    3738,    5108
5475,    5290,    3759,    3739,    5110
5476,    5292,    3760,    3740,    5112
5477,    5294,    3761,    3741,    5114
5478,    5296,    3762,    3742,    5116
5479,    5298,    3763,    3743,    5118
5480,    5300,    3764,    3744,    5120
5481,    5302,    3765,    3745,    5122
5482,    5304,    3766,    3746,    5124
5483,    5306,    3767,    3747,    5126
5484,    5308,    3768,    3748,    5128
5485,    5310,    3769,    3749,    5130
5486,    3750,    5311,    5131,    3730
5487,    3751,    5312,    5132,    3731
5488,    3752,    5313,    5133,    3732
5489,    3753,    5314,    5134,    3733
5490,    3754,    5315,    5135,    3734
5491,    3755,    5316,    5136,    3735
5492,    3756,    5317,    5137,    3736
5493,    3757,    5318,    5138,    3737
5494,    3758,    5319,    5139,    3738
5495,    3759,    5320,    5140,    3739
5496,    3760,    5321,    5141,    3740
5497,    3761,    5322,    5142,    3741
5498,    3762,    5323,    5143,    3742
5499,    3763,    5324,    5144,    3743
5500,    3764,    5325,    5145,    3744
5501,    3765,    5326,    5146,    3745
5502,    3766,    5327,    5147,    3746
5503,    3767,    5328,    5148,    3747
5504,    3768,    5329,    5149,    3748
5505,    3769,    5330,    5150,    3749
5506,    5311,    3349,    3329,    5131
5507,    5312,    3350,    3330,    5132
5508,    5313,    3351,    3331,    5133
5509,    5314,    3352,    3332,    5134
5510,    5315,    3353,    3333,    5135
5511,    5316,    3354,    3334,    5136
5512,    5317,    3355,    3335,    5137
5513,    5318,    3356,    3336,    5138
5514,    5319,    3357,    3337,    5139
5515,    5320,    3358,    3338,    5140
5516,    5321,    3359,    3339,    5141
5517,    5322,    3360,    3340,    5142
5518,    5323,    3361,    3341,    5143
5519,    5324,    3362,    3342,    5144
5520,    5325,    3363,    3343,    5145
5521,    5326,    3364,    3344,    5146
5522,    5327,    3365,    3345,    5147
5523,    5328,    3366,    3346,    5148
5524,    5329,    3367,    3347,    5149
5525,    5330,    3368,    3348,    5150
5526,    3349,    5331,    5151,    3329
5527,    3350,    5332,    5152,    3330
5528,    3351,    5333,    5153,    3331
5529,    3352,    5334,    5154,    3332
5530,    3353,    5335,    5155,    3333
5531,    3354,    5336,    5156,    3334
5532,    3355,    5337,    5157,    3335
5533,    3356,    5338,    5158,    3336
5534,    3357,    5339,    5159,    3337
5535,    3358,    5340,    5160,    3338
5536,    3359,    5341,    5161,    3339
5537,    3360,    5342,    5162,    3340
5538,    3361,    5343,    5163,    3341
5539,    3362,    5344,    5164,    3342
5540,    3363,    5345,    5165,    3343
5541,    3364,    5346,    5166,    3344
5542,    3365,    5347,    5167,    3345
5543,    3366,    5348,    5168,    3346
5544,    3367,    5349,    5169,    3347
5545,    3368,    5350,    5170,    3348
5546,    5331,    5351,    5171,    5151
5547,    5332,    5352,    5172,    5152
5548,    5333,    5353,    5173,    5153
5549,    5334,    5354,    5174,    5154
5550,    5335,    5355,    5175,    5155
5551,    5336,    5356,    5176,    5156
5552,    5337,    5357,    5177,    5157
5553,    5338,    5358,    5178,    5158
5554,    5339,    5359,    5179,    5159
5555,    5340,    5360,    5180,    5160
5556,    5341,    5361,    5181,    5161
5557,    5342,    5362,    5182,    5162
5558,    5343,    5363,    5183,    5163
5559,    5344,    5364,    5184,    5164
5560,    5345,    5365,    5185,    5165
5561,    5346,    5366,    5186,    5166
5562,    5347,    5367,    5187,    5167
5563,    5348,    5368,    5188,    5168
5564,    5349,    5369,    5189,    5169
5565,    5350,    5370,    5190,    5170
5566,    5351,    5371,    5191,    5171
5567,    5352,    5372,    5192,    5172
5568,    5353,    5373,    5193,    5173
5569,    5354,    5374,    5194,    5174
5570,    5355,    5375,    5195,    5175
5571,    5356,    5376,    5196,    5176
5572,    5357,    5377,    5197,    5177
5573,    5358,    5378,    5198,    5178
5574,    5359,    5379,    5199,    5179
5575,    5360,    5380,    5200,    5180
5576,    5361,    5381,    5201,    5181
5577,    5362,    5382,    5202,    5182
5578,    5363,    5383,    5203,    5183
5579,    5364,    5384,    5204,    5184
5580,    5365,    5385,    5205,    5185
5581,    5366,    5386,    5206,    5186
5582,    5367,    5387,    5207,    5187
5583,    5368,    5388,    5208,    5188
5584,    5369,    5389,    5209,    5189
5585,    5370,    5390,    5210,    5190
5586,    5371,    2547,    2527,    5191
5587,    5372,    2548,    2528,    5192
5588,    5373,    2549,    2529,    5193
5589,    5374,    2550,    2530,    5194
5590,    5375,    2551,    2531,    5195
5591,    5376,    2552,    2532,    5196
5592,    5377,    2553,    2533,    5197
5593,    5378,    2554,    2534,    5198
5594,    5379,    2555,    2535,    5199
5595,    5380,    2556,    2536,    5200
5596,    5381,    2557,    2537,    5201
5597,    5382,    2558,    2538,    5202
5598,    5383,    2559,    2539,    5203
5599,    5384,    2560,    2540,    5204
5600,    5385,    2561,    2541,    5205
5601,    5386,    2562,    2542,    5206
5602,    5387,    2563,    2543,    5207
5603,    5388,    2564,    2544,    5208
5604,    5389,    2565,    2545,    5209
5605,    5390,    2566,    2546,    5210
5606,    2547,    5391,    5211,    2527
5607,    2548,    5392,    5212,    2528
5608,    2549,    5393,    5213,    2529
5609,    2550,    5394,    5214,    2530
5610,    2551,    5395,    5215,    2531
5611,    2552,    5396,    5216,    2532
5612,    2553,    5397,    5217,    2533
5613,    2554,    5398,    5218,    2534
5614,    2555,    5399,    5219,    2535
5615,    2556,    5400,    5220,    2536
5616,    2557,    5401,    5221,    2537
5617,    2558,    5402,    5222,    2538
5618,    2559,    5403,    5223,    2539
5619,    2560,    5404,    5224,    2540
5620,    2561,    5405,    5225,    2541
5621,    2562,    5406,    5226,    2542
5622,    2563,    5407,    5227,    2543
5623,    2564,    5408,    5228,    2544
5624,    2565,    5409,    5229,    2545
5625,    2566,    5410,    5230,    2546
5626,    5391,    2948,    2928,    5211
5627,    5392,    2949,    2929,    5212
5628,    5393,    2950,    2930,    5213
5629,    5394,    2951,    2931,    5214
5630,    5395,    2952,    2932,    5215
5631,    5396,    2953,    2933,    5216
5632,    5397,    2954,    2934,    5217
5633,    5398,    2955,    2935,    5218
5634,    5399,    2956,    2936,    5219
5635,    5400,    2957,    2937,    5220
5636,    5401,    2958,    2938,    5221
5637,    5402,    2959,    2939,    5222
5638,    5403,    2960,    2940,    5223
5639,    5404,    2961,    2941,    5224
5640,    5405,    2962,    2942,    5225
5641,    5406,    2963,    2943,    5226
5642,    5407,    2964,    2944,    5227
5643,    5408,    2965,    2945,    5228
5644,    5409,    2966,    2946,    5229
5645,    5410,    2967,    2947,    5230
5646,    2948,    5411,    5231,    2928
5647,    2949,    5412,    5232,    2929
5648,    2950,    5413,    5233,    2930
5649,    2951,    5414,    5234,    2931
5650,    2952,    5415,    5235,    2932
5651,    2953,    5416,    5236,    2933
5652,    2954,    5417,    5237,    2934
5653,    2955,    5418,    5238,    2935
5654,    2956,    5419,    5239,    2936
5655,    2957,    5420,    5240,    2937
5656,    2958,    5421,    5241,    2938
5657,    2959,    5422,    5242,    2939
5658,    2960,    5423,    5243,    2940
5659,    2961,    5424,    5244,    2941
5660,    2962,    5425,    5245,    2942
5661,    2963,    5426,    5246,    2943
5662,    2964,    5427,    5247,    2944
5663,    2965,    5428,    5248,    2945
5664,    2966,    5429,    5249,    2946
5665,    2967,    5430,    5250,    2947
5666,    5411,    5431,    5251,    5231
5667,    5412,    5432,    5252,    5232
5668,    5413,    5433,    5253,    5233
5669,    5414,    5434,    5254,    5234
5670,    5415,    5435,    5255,    5235
5671,    5416,    5436,    5256,    5236
5672,    5417,    5437,    5257,    5237
5673,    5418,    5438,    5258,    5238
5674,    5419,    5439,    5259,    5239
5675,    5420,    5440,    5260,    5240
5676,    5421,    5441,    5261,    5241
5677,    5422,    5442,    5262,    5242
5678,    5423,    5443,    5263,    5243
5679,    5424,    5444,    5264,    5244
5680,    5425,    5445,    5265,    5245
5681,    5426,    5446,    5266,    5246
5682,    5427,    5447,    5267,    5247
5683,    5428,    5448,    5268,    5248
5684,    5429,    5449,    5269,    5249
5685,    5430,    5450,    5270,    5250
5686,    5451,    5452,    5272,    5271
5687,    5453,    5454,    5274,    5273
5688,    5455,    5456,    5276,    5275
5689,    5457,    5458,    5278,    5277
5690,    5459,    5460,    5280,    5279
5691,    5461,    5462,    5282,    5281
5692,    5463,    5464,    5284,    5283
5693,    5465,    5466,    5286,    5285
5694,    5467,    5468,    5288,    5287
5695,    5469,    5470,    5290,    5289
5696,    5471,    5472,    5292,    5291
5697,    5473,    5474,    5294,    5293
5698,    5475,    5476,    5296,    5295
5699,    5477,    5478,    5298,    5297
5700,    5479,    5480,    5300,    5299
5701,    5481,    5482,    5302,    5301
5702,    5483,    5484,    5304,    5303
5703,    5485,    5486,    5306,    5305
5704,    5487,    5488,    5308,    5307
5705,    5489,    5490,    5310,    5309
5706,    5452,    3770,    3750,    5272
5707,    5454,    3771,    3751,    5274
5708,    5456,    3772,    3752,    5276
5709,    5458,    3773,    3753,    5278
5710,    5460,    3774,    3754,    5280
5711,    5462,    3775,    3755,    5282
5712,    5464,    3776,    3756,    5284
5713,    5466,    3777,    3757,    5286
5714,    5468,    3778,    3758,    5288
5715,    5470,    3779,    3759,    5290
5716,    5472,    3780,    3760,    5292
5717,    5474,    3781,    3761,    5294
5718,    5476,    3782,    3762,    5296
5719,    5478,    3783,    3763,    5298
5720,    5480,    3784,    3764,    5300
5721,    5482,    3785,    3765,    5302
5722,    5484,    3786,    3766,    5304
5723,    5486,    3787,    3767,    5306
5724,    5488,    3788,    3768,    5308
5725,    5490,    3789,    3769,    5310
5726,    3770,    5491,    5311,    3750
5727,    3771,    5492,    5312,    3751
5728,    3772,    5493,    5313,    3752
5729,    3773,    5494,    5314,    3753
5730,    3774,    5495,    5315,    3754
5731,    3775,    5496,    5316,    3755
5732,    3776,    5497,    5317,    3756
5733,    3777,    5498,    5318,    3757
5734,    3778,    5499,    5319,    3758
5735,    3779,    5500,    5320,    3759
5736,    3780,    5501,    5321,    3760
5737,    3781,    5502,    5322,    3761
5738,    3782,    5503,    5323,    3762
5739,    3783,    5504,    5324,    3763
5740,    3784,    5505,    5325,    3764
5741,    3785,    5506,    5326,    3765
5742,    3786,    5507,    5327,    3766
5743,    3787,    5508,    5328,    3767
5744,    3788,    5509,    5329,    3768
5745,    3789,    5510,    5330,    3769
5746,    5491,    3369,    3349,    5311
5747,    5492,    3370,    3350,    5312
5748,    5493,    3371,    3351,    5313
5749,    5494,    3372,    3352,    5314
5750,    5495,    3373,    3353,    5315
5751,    5496,    3374,    3354,    5316
5752,    5497,    3375,    3355,    5317
5753,    5498,    3376,    3356,    5318
5754,    5499,    3377,    3357,    5319
5755,    5500,    3378,    3358,    5320
5756,    5501,    3379,    3359,    5321
5757,    5502,    3380,    3360,    5322
5758,    5503,    3381,    3361,    5323
5759,    5504,    3382,    3362,    5324
5760,    5505,    3383,    3363,    5325
5761,    5506,    3384,    3364,    5326
5762,    5507,    3385,    3365,    5327
5763,    5508,    3386,    3366,    5328
5764,    5509,    3387,    3367,    5329
5765,    5510,    3388,    3368,    5330
5766,    3369,    5511,    5331,    3349
5767,    3370,    5512,    5332,    3350
5768,    3371,    5513,    5333,    3351
5769,    3372,    5514,    5334,    3352
5770,    3373,    5515,    5335,    3353
5771,    3374,    5516,    5336,    3354
5772,    3375,    5517,    5337,    3355
5773,    3376,    5518,    5338,    3356
5774,    3377,    5519,    5339,    3357
5775,    3378,    5520,    5340,    3358
5776,    3379,    5521,    5341,    3359
5777,    3380,    5522,    5342,    3360
5778,    3381,    5523,    5343,    3361
5779,    3382,    5524,    5344,    3362
5780,    3383,    5525,    5345,    3363
5781,    3384,    5526,    5346,    3364
5782,    3385,    5527,    5347,    3365
5783,    3386,    5528,    5348,    3366
5784,    3387,    5529,    5349,    3367
5785,    3388,    5530,    5350,    3368
5786,    5511,    5531,    5351,    5331
5787,    5512,    5532,    5352,    5332
5788,    5513,    5533,    5353,    5333
5789,    5514,    5534,    5354,    5334
5790,    5515,    5535,    5355,    5335
5791,    5516,    5536,    5356,    5336
5792,    5517,    5537,    5357,    5337
5793,    5518,    5538,    5358,    5338
5794,    5519,    5539,    5359,    5339
5795,    5520,    5540,    5360,    5340
5796,    5521,    5541,    5361,    5341
5797,    5522,    5542,    5362,    5342
5798,    5523,    5543,    5363,    5343
5799,    5524,    5544,    5364,    5344
5800,    5525,    5545,    5365,    5345
5801,    5526,    5546,    5366,    5346
5802,    5527,    5547,    5367,    5347
5803,    5528,    5548,    5368,    5348
5804,    5529,    5549,    5369,    5349
5805,    5530,    5550,    5370,    5350
5806,    5531,    5551,    5371,    5351
5807,    5532,    5552,    5372,    5352
5808,    5533,    5553,    5373,    5353
5809,    5534,    5554,    5374,    5354
5810,    5535,    5555,    5375,    5355
5811,    5536,    5556,    5376,    5356
5812,    5537,    5557,    5377,    5357
5813,    5538,    5558,    5378,    5358
5814,    5539,    5559,    5379,    5359
5815,    5540,    5560,    5380,    5360
5816,    5541,    5561,    5381,    5361
5817,    5542,    5562,    5382,    5362
5818,    5543,    5563,    5383,    5363
5819,    5544,    5564,    5384,    5364
5820,    5545,    5565,    5385,    5365
5821,    5546,    5566,    5386,    5366
5822,    5547,    5567,    5387,    5367
5823,    5548,    5568,    5388,    5368
5824,    5549,    5569,    5389,    5369
5825,    5550,    5570,    5390,    5370
5826,    5551,    2567,    2547,    5371
5827,    5552,    2568,    2548,    5372
5828,    5553,    2569,    2549,    5373
5829,    5554,    2570,    2550,    5374
5830,    5555,    2571,    2551,    5375
5831,    5556,    2572,    2552,    5376
5832,    5557,    2573,    2553,    5377
5833,    5558,    2574,    2554,    5378
5834,    5559,    2575,    2555,    5379
5835,    5560,    2576,    2556,    5380
5836,    5561,    2577,    2557,    5381
5837,    5562,    2578,    2558,    5382
5838,    5563,    2579,    2559,    5383
5839,    5564,    2580,    2560,    5384
5840,    5565,    2581,    2561,    5385
5841,    5566,    2582,    2562,    5386
5842,    5567,    2583,    2563,    5387
5843,    5568,    2584,    2564,    5388
5844,    5569,    2585,    2565,    5389
5845,    5570,    2586,    2566,    5390
5846,    2567,    5571,    5391,    2547
5847,    2568,    5572,    5392,    2548
5848,    2569,    5573,    5393,    2549
5849,    2570,    5574,    5394,    2550
5850,    2571,    5575,    5395,    2551
5851,    2572,    5576,    5396,    2552
5852,    2573,    5577,    5397,    2553
5853,    2574,    5578,    5398,    2554
5854,    2575,    5579,    5399,    2555
5855,    2576,    5580,    5400,    2556
5856,    2577,    5581,    5401,    2557
5857,    2578,    5582,    5402,    2558
5858,    2579,    5583,    5403,    2559
5859,    2580,    5584,    5404,    2560
5860,    2581,    5585,    5405,    2561
5861,    2582,    5586,    5406,    2562
5862,    2583,    5587,    5407,    2563
5863,    2584,    5588,    5408,    2564
5864,    2585,    5589,    5409,    2565
5865,    2586,    5590,    5410,    2566
5866,    5571,    2968,    2948,    5391
5867,    5572,    2969,    2949,    5392
5868,    5573,    2970,    2950,    5393
5869,    5574,    2971,    2951,    5394
5870,    5575,    2972,    2952,    5395
5871,    5576,    2973,    2953,    5396
5872,    5577,    2974,    2954,    5397
5873,    5578,    2975,    2955,    5398
5874,    5579,    2976,    2956,    5399
5875,    5580,    2977,    2957,    5400
5876,    5581,    2978,    2958,    5401
5877,    5582,    2979,    2959,    5402
5878,    5583,    2980,    2960,    5403
5879,    5584,    2981,    2961,    5404
5880,    5585,    2982,    2962,    5405
5881,    5586,    2983,    2963,    5406
5882,    5587,    2984,    2964,    5407
5883,    5588,    2985,    2965,    5408
5884,    5589,    2986,    2966,    5409
5885,    5590,    2987,    2967,    5410
5886,    2968,    5591,    5411,    2948
5887,    2969,    5592,    5412,    2949
5888,    2970,    5593,    5413,    2950
5889,    2971,    5594,    5414,    2951
5890,    2972,    5595,    5415,    2952
5891,    2973,    5596,    5416,    2953
5892,    2974,    5597,    5417,    2954
5893,    2975,    5598,    5418,    2955
5894,    2976,    5599,    5419,    2956
5895,    2977,    5600,    5420,    2957
5896,    2978,    5601,    5421,    2958
5897,    2979,    5602,    5422,    2959
5898,    2980,    5603,    5423,    2960
5899,    2981,    5604,    5424,    2961
5900,    2982,    5605,    5425,    2962
5901,    2983,    5606,    5426,    2963
5902,    2984,    5607,    5427,    2964
5903,    2985,    5608,    5428,    2965
5904,    2986,    5609,    5429,    2966
5905,    2987,    5610,    5430,    2967
5906,    5591,    5611,    5431,    5411
5907,    5592,    5612,    5432,    5412
5908,    5593,    5613,    5433,    5413
5909,    5594,    5614,    5434,    5414
5910,    5595,    5615,    5435,    5415
5911,    5596,    5616,    5436,    5416
5912,    5597,    5617,    5437,    5417
5913,    5598,    5618,    5438,    5418
5914,    5599,    5619,    5439,    5419
5915,    5600,    5620,    5440,    5420
5916,    5601,    5621,    5441,    5421
5917,    5602,    5622,    5442,    5422
5918,    5603,    5623,    5443,    5423
5919,    5604,    5624,    5444,    5424
5920,    5605,    5625,    5445,    5425
5921,    5606,    5626,    5446,    5426
5922,    5607,    5627,    5447,    5427
5923,    5608,    5628,    5448,    5428
5924,    5609,    5629,    5449,    5429
5925,    5610,    5630,    5450,    5430
5926,    5631,    5632,    5452,    5451
5927,    5633,    5634,    5454,    5453
5928,    5635,    5636,    5456,    5455
5929,    5637,    5638,    5458,    5457
5930,    5639,    5640,    5460,    5459
5931,    5641,    5642,    5462,    5461
5932,    5643,    5644,    5464,    5463
5933,    5645,    5646,    5466,    5465
5934,    5647,    5648,    5468,    5467
5935,    5649,    5650,    5470,    5469
5936,    5651,    5652,    5472,    5471
5937,    5653,    5654,    5474,    5473
5938,    5655,    5656,    5476,    5475
5939,    5657,    5658,    5478,    5477
5940,    5659,    5660,    5480,    5479
5941,    5661,    5662,    5482,    5481
5942,    5663,    5664,    5484,    5483
5943,    5665,    5666,    5486,    5485
5944,    5667,    5668,    5488,    5487
5945,    5669,    5670,    5490,    5489
5946,    5632,    3790,    3770,    5452
5947,    5634,    3791,    3771,    5454
5948,    5636,    3792,    3772,    5456
5949,    5638,    3793,    3773,    5458
5950,    5640,    3794,    3774,    5460
5951,    5642,    3795,    3775,    5462
5952,    5644,    3796,    3776,    5464
5953,    5646,    3797,    3777,    5466
5954,    5648,    3798,    3778,    5468
5955,    5650,    3799,    3779,    5470
5956,    5652,    3800,    3780,    5472
5957,    5654,    3801,    3781,    5474
5958,    5656,    3802,    3782,    5476
5959,    5658,    3803,    3783,    5478
5960,    5660,    3804,    3784,    5480
5961,    5662,    3805,    3785,    5482
5962,    5664,    3806,    3786,    5484
5963,    5666,    3807,    3787,    5486
5964,    5668,    3808,    3788,    5488
5965,    5670,    3809,    3789,    5490
5966,    3790,    5671,    5491,    3770
5967,    3791,    5672,    5492,    3771
5968,    3792,    5673,    5493,    3772
5969,    3793,    5674,    5494,    3773
5970,    3794,    5675,    5495,    3774
5971,    3795,    5676,    5496,    3775
5972,    3796,    5677,    5497,    3776
5973,    3797,    5678,    5498,    3777
5974,    3798,    5679,    5499,    3778
5975,    3799,    5680,    5500,    3779
5976,    3800,    5681,    5501,    3780
5977,    3801,    5682,    5502,    3781
5978,    3802,    5683,    5503,    3782
5979,    3803,    5684,    5504,    3783
5980,    3804,    5685,    5505,    3784
5981,    3805,    5686,    5506,    3785
5982,    3806,    5687,    5507,    3786
5983,    3807,    5688,    5508,    3787
5984,    3808,    5689,    5509,    3788
5985,    3809,    5690,    5510,    3789
5986,    5671,    3389,    3369,    5491
5987,    5672,    3390,    3370,    5492
5988,    5673,    3391,    3371,    5493
5989,    5674,    3392,    3372,    5494
5990,    5675,    3393,    3373,    5495
5991,    5676,    3394,    3374,    5496
5992,    5677,    3395,    3375,    5497
5993,    5678,    3396,    3376,    5498
5994,    5679,    3397,    3377,    5499
5995,    5680,    3398,    3378,    5500
5996,    5681,    3399,    3379,    5501
5997,    5682,    3400,    3380,    5502
5998,    5683,    3401,    3381,    5503
5999,    5684,    3402,    3382,    5504
6000,    5685,    3403,    3383,    5505
6001,    5686,    3404,    3384,    5506
6002,    5687,    3405,    3385,    5507
6003,    5688,    3406,    3386,    5508
6004,    5689,    3407,    3387,    5509
6005,    5690,    3408,    3388,    5510
6006,    3389,    5691,    5511,    3369
6007,    3390,    5692,    5512,    3370
6008,    3391,    5693,    5513,    3371
6009,    3392,    5694,    5514,    3372
6010,    3393,    5695,    5515,    3373
6011,    3394,    5696,    5516,    3374
6012,    3395,    5697,    5517,    3375
6013,    3396,    5698,    5518,    3376
6014,    3397,    5699,    5519,    3377
6015,    3398,    5700,    5520,    3378
6016,    3399,    5701,    5521,    3379
6017,    3400,    5702,    5522,    3380
6018,    3401,    5703,    5523,    3381
6019,    3402,    5704,    5524,    3382
6020,    3403,    5705,    5525,    3383
6021,    3404,    5706,    5526,    3384
6022,    3405,    5707,    5527,    3385
6023,    3406,    5708,    5528,    3386
6024,    3407,    5709,    5529,    3387
6025,    3408,    5710,    5530,    3388
6026,    5691,    5711,    5531,    5511
6027,    5692,    5712,    5532,    5512
6028,    5693,    5713,    5533,    5513
6029,    5694,    5714,    5534,    5514
6030,    5695,    5715,    5535,    5515
6031,    5696,    5716,    5536,    5516
6032,    5697,    5717,    5537,    5517
6033,    5698,    5718,    5538,    5518
6034,    5699,    5719,    5539,    5519
6035,    5700,    5720,    5540,    5520
6036,    5701,    5721,    5541,    5521
6037,    5702,    5722,    5542,    5522
6038,    5703,    5723,    5543,    5523
6039,    5704,    5724,    5544,    5524
6040,    5705,    5725,    5545,    5525
6041,    5706,    5726,    5546,    5526
6042,    5707,    5727,    5547,    5527
6043,    5708,    5728,    5548,    5528
6044,    5709,    5729,    5549,    5529
6045,    5710,    5730,    5550,    5530
6046,    5711,    5731,    5551,    5531
6047,    5712,    5732,    5552,    5532
6048,    5713,    5733,    5553,    5533
6049,    5714,    5734,    5554,    5534
6050,    5715,    5735,    5555,    5535
6051,    5716,    5736,    5556,    5536
6052,    5717,    5737,    5557,    5537
6053,    5718,    5738,    5558,    5538
6054,    5719,    5739,    5559,    5539
6055,    5720,    5740,    5560,    5540
6056,    5721,    5741,    5561,    5541
6057,    5722,    5742,    5562,    5542
6058,    5723,    5743,    5563,    5543
6059,    5724,    5744,    5564,    5544
6060,    5725,    5745,    5565,    5545
6061,    5726,    5746,    5566,    5546
6062,    5727,    5747,    5567,    5547
6063,    5728,    5748,    5568,    5548
6064,    5729,    5749,    5569,    5549
6065,    5730,    5750,    5570,    5550
6066,    5731,    2587,    2567,    5551
6067,    5732,    2588,    2568,    5552
6068,    5733,    2589,    2569,    5553
6069,    5734,    2590,    2570,    5554
6070,    5735,    2591,    2571,    5555
6071,    5736,    2592,    2572,    5556
6072,    5737,    2593,    2573,    5557
6073,    5738,    2594,    2574,    5558
6074,    5739,    2595,    2575,    5559
6075,    5740,    2596,    2576,    5560
6076,    5741,    2597,    2577,    5561
6077,    5742,    2598,    2578,    5562
6078,    5743,    2599,    2579,    5563
6079,    5744,    2600,    2580,    5564
6080,    5745,    2601,    2581,    5565
6081,    5746,    2602,    2582,    5566
6082,    5747,    2603,    2583,    5567
6083,    5748,    2604,    2584,    5568
6084,    5749,    2605,    2585,    5569
6085,    5750,    2606,    2586,    5570
6086,    2587,    5751,    5571,    2567
6087,    2588,    5752,    5572,    2568
6088,    2589,    5753,    5573,    2569
6089,    2590,    5754,    5574,    2570
6090,    2591,    5755,    5575,    2571
6091,    2592,    5756,    5576,    2572
6092,    2593,    5757,    5577,    2573
6093,    2594,    5758,    5578,    2574
6094,    2595,    5759,    5579,    2575
6095,    2596,    5760,    5580,    2576
6096,    2597,    5761,    5581,    2577
6097,    2598,    5762,    5582,    2578
6098,    2599,    5763,    5583,    2579
6099,    2600,    5764,    5584,    2580
6100,    2601,    5765,    5585,    2581
6101,    2602,    5766,    5586,    2582
6102,    2603,    5767,    5587,    2583
6103,    2604,    5768,    5588,    2584
6104,    2605,    5769,    5589,    2585
6105,    2606,    5770,    5590,    2586
6106,    5751,    2988,    2968,    5571
6107,    5752,    2989,    2969,    5572
6108,    5753,    2990,    2970,    5573
6109,    5754,    2991,    2971,    5574
6110,    5755,    2992,    2972,    5575
6111,    5756,    2993,    2973,    5576
6112,    5757,    2994,    2974,    5577
6113,    5758,    2995,    2975,    5578
6114,    5759,    2996,    2976,    5579
6115,    5760,    2997,    2977,    5580
6116,    5761,    2998,    2978,    5581
6117,    5762,    2999,    2979,    5582
6118,    5763,    3000,    2980,    5583
6119,    5764,    3001,    2981,    5584
6120,    5765,    3002,    2982,    5585
6121,    5766,    3003,    2983,    5586
6122,    5767,    3004,    2984,    5587
6123,    5768,    3005,    2985,    5588
6124,    5769,    3006,    2986,    5589
6125,    5770,    3007,    2987,    5590
6126,    2988,    5771,    5591,    2968
6127,    2989,    5772,    5592,    2969
6128,    2990,    5773,    5593,    2970
6129,    2991,    5774,    5594,    2971
6130,    2992,    5775,    5595,    2972
6131,    2993,    5776,    5596,    2973
6132,    2994,    5777,    5597,    2974
6133,    2995,    5778,    5598,    2975
6134,    2996,    5779,    5599,    2976
6135,    2997,    5780,    5600,    2977
6136,    2998,    5781,    5601,    2978
6137,    2999,    5782,    5602,    2979
6138,    3000,    5783,    5603,    2980
6139,    3001,    5784,    5604,    2981
6140,    3002,    5785,    5605,    2982
6141,    3003,    5786,    5606,    2983
6142,    3004,    5787,    5607,    2984
6143,    3005,    5788,    5608,    2985
6144,    3006,    5789,    5609,    2986
6145,    3007,    5790,    5610,    2987
6146,    5771,    5791,    5611,    5591
6147,    5772,    5792,    5612,    5592
6148,    5773,    5793,    5613,    5593
6149,    5774,    5794,    5614,    5594
6150,    5775,    5795,    5615,    5595
6151,    5776,    5796,    5616,    5596
6152,    5777,    5797,    5617,    5597
6153,    5778,    5798,    5618,    5598
6154,    5779,    5799,    5619,    5599
6155,    5780,    5800,    5620,    5600
6156,    5781,    5801,    5621,    5601
6157,    5782,    5802,    5622,    5602
6158,    5783,    5803,    5623,    5603
6159,    5784,    5804,    5624,    5604
6160,    5785,    5805,    5625,    5605
6161,    5786,    5806,    5626,    5606
6162,    5787,    5807,    5627,    5607
6163,    5788,    5808,    5628,    5608
6164,    5789,    5809,    5629,    5609
6165,    5790,    5810,    5630,    5610
6166,    5811,    5812,    5632,    5631
6167,    5813,    5814,    5634,    5633
6168,    5815,    5816,    5636,    5635
6169,    5817,    5818,    5638,    5637
6170,    5819,    5820,    5640,    5639
6171,    5821,    5822,    5642,    5641
6172,    5823,    5824,    5644,    5643
6173,    5825,    5826,    5646,    5645
6174,    5827,    5828,    5648,    5647
6175,    5829,    5830,    5650,    5649
6176,    5831,    5832,    5652,    5651
6177,    5833,    5834,    5654,    5653
6178,    5835,    5836,    5656,    5655
6179,    5837,    5838,    5658,    5657
6180,    5839,    5840,    5660,    5659
6181,    5841,    5842,    5662,    5661
6182,    5843,    5844,    5664,    5663
6183,    5845,    5846,    5666,    5665
6184,    5847,    5848,    5668,    5667
6185,    5849,    5850,    5670,    5669
6186,    5812,    3810,    3790,    5632
6187,    5814,    3811,    3791,    5634
6188,    5816,    3812,    3792,    5636
6189,    5818,    3813,    3793,    5638
6190,    5820,    3814,    3794,    5640
6191,    5822,    3815,    3795,    5642
6192,    5824,    3816,    3796,    5644
6193,    5826,    3817,    3797,    5646
6194,    5828,    3818,    3798,    5648
6195,    5830,    3819,    3799,    5650
6196,    5832,    3820,    3800,    5652
6197,    5834,    3821,    3801,    5654
6198,    5836,    3822,    3802,    5656
6199,    5838,    3823,    3803,    5658
6200,    5840,    3824,    3804,    5660
6201,    5842,    3825,    3805,    5662
6202,    5844,    3826,    3806,    5664
6203,    5846,    3827,    3807,    5666
6204,    5848,    3828,    3808,    5668
6205,    5850,    3829,    3809,    5670
6206,    3810,    5851,    5671,    3790
6207,    3811,    5852,    5672,    3791
6208,    3812,    5853,    5673,    3792
6209,    3813,    5854,    5674,    3793
6210,    3814,    5855,    5675,    3794
6211,    3815,    5856,    5676,    3795
6212,    3816,    5857,    5677,    3796
6213,    3817,    5858,    5678,    3797
6214,    3818,    5859,    5679,    3798
6215,    3819,    5860,    5680,    3799
6216,    3820,    5861,    5681,    3800
6217,    3821,    5862,    5682,    3801
6218,    3822,    5863,    5683,    3802
6219,    3823,    5864,    5684,    3803
6220,    3824,    5865,    5685,    3804
6221,    3825,    5866,    5686,    3805
6222,    3826,    5867,    5687,    3806
6223,    3827,    5868,    5688,    3807
6224,    3828,    5869,    5689,    3808
6225,    3829,    5870,    5690,    3809
6226,    5851,    3409,    3389,    5671
6227,    5852,    3410,    3390,    5672
6228,    5853,    3411,    3391,    5673
6229,    5854,    3412,    3392,    5674
6230,    5855,    3413,    3393,    5675
6231,    5856,    3414,    3394,    5676
6232,    5857,    3415,    3395,    5677
6233,    5858,    3416,    3396,    5678
6234,    5859,    3417,    3397,    5679
6235,    5860,    3418,    3398,    5680
6236,    5861,    3419,    3399,    5681
6237,    5862,    3420,    3400,    5682
6238,    5863,    3421,    3401,    5683
6239,    5864,    3422,    3402,    5684
6240,    5865,    3423,    3403,    5685
6241,    5866,    3424,    3404,    5686
6242,    5867,    3425,    3405,    5687
6243,    5868,    3426,    3406,    5688
6244,    5869,    3427,    3407,    5689
6245,    5870,    3428,    3408,    5690
6246,    3409,    5871,    5691,    3389
6247,    3410,    5872,    5692,    3390
6248,    3411,    5873,    5693,    3391
6249,    3412,    5874,    5694,    3392
6250,    3413,    5875,    5695,    3393
6251,    3414,    5876,    5696,    3394
6252,    3415,    5877,    5697,    3395
6253,    3416,    5878,    5698,    3396
6254,    3417,    5879,    5699,    3397
6255,    3418,    5880,    5700,    3398
6256,    3419,    5881,    5701,    3399
6257,    3420,    5882,    5702,    3400
6258,    3421,    5883,    5703,    3401
6259,    3422,    5884,    5704,    3402
6260,    3423,    5885,    5705,    3403
6261,    3424,    5886,    5706,    3404
6262,    3425,    5887,    5707,    3405
6263,    3426,    5888,    5708,    3406
6264,    3427,    5889,    5709,    3407
6265,    3428,    5890,    5710,    3408
6266,    5871,    5891,    5711,    5691
6267,    5872,    5892,    5712,    5692
6268,    5873,    5893,    5713,    5693
6269,    5874,    5894,    5714,    5694
6270,    5875,    5895,    5715,    5695
6271,    5876,    5896,    5716,    5696
6272,    5877,    5897,    5717,    5697
6273,    5878,    5898,    5718,    5698
6274,    5879,    5899,    5719,    5699
6275,    5880,    5900,    5720,    5700
6276,    5881,    5901,    5721,    5701
6277,    5882,    5902,    5722,    5702
6278,    5883,    5903,    5723,    5703
6279,    5884,    5904,    5724,    5704
6280,    5885,    5905,    5725,    5705
6281,    5886,    5906,    5726,    5706
6282,    5887,    5907,    5727,    5707
6283,    5888,    5908,    5728,    5708
6284,    5889,    5909,    5729,    5709
6285,    5890,    5910,    5730,    5710
6286,    5891,    5911,    5731,    5711
6287,    5892,    5912,    5732,    5712
6288,    5893,    5913,    5733,    5713
6289,    5894,    5914,    5734,    5714
6290,    5895,    5915,    5735,    5715
6291,    5896,    5916,    5736,    5716
6292,    5897,    5917,    5737,    5717
6293,    5898,    5918,    5738,    5718
6294,    5899,    5919,    5739,    5719
6295,    5900,    5920,    5740,    5720
6296,    5901,    5921,    5741,    5721
6297,    5902,    5922,    5742,    5722
6298,    5903,    5923,    5743,    5723
6299,    5904,    5924,    5744,    5724
6300,    5905,    5925,    5745,    5725
6301,    5906,    5926,    5746,    5726
6302,    5907,    5927,    5747,    5727
6303,    5908,    5928,    5748,    5728
6304,    5909,    5929,    5749,    5729
6305,    5910,    5930,    5750,    5730
6306,    5911,    2607,    2587,    5731
6307,    5912,    2608,    2588,    5732
6308,    5913,    2609,    2589,    5733
6309,    5914,    2610,    2590,    5734
6310,    5915,    2611,    2591,    5735
6311,    5916,    2612,    2592,    5736
6312,    5917,    2613,    2593,    5737
6313,    5918,    2614,    2594,    5738
6314,    5919,    2615,    2595,    5739
6315,    5920,    2616,    2596,    5740
6316,    5921,    2617,    2597,    5741
6317,    5922,    2618,    2598,    5742
6318,    5923,    2619,    2599,    5743
6319,    5924,    2620,    2600,    5744
6320,    5925,    2621,    2601,    5745
6321,    5926,    2622,    2602,    5746
6322,    5927,    2623,    2603,    5747
6323,    5928,    2624,    2604,    5748
6324,    5929,    2625,    2605,    5749
6325,    5930,    2626,    2606,    5750
6326,    2607,    5931,    5751,    2587
6327,    2608,    5932,    5752,    2588
6328,    2609,    5933,    5753,    2589
6329,    2610,    5934,    5754,    2590
6330,    2611,    5935,    5755,    2591
6331,    2612,    5936,    5756,    2592
6332,    2613,    5937,    5757,    2593
6333,    2614,    5938,    5758,    2594
6334,    2615,    5939,    5759,    2595
6335,    2616,    5940,    5760,    2596
6336,    2617,    5941,    5761,    2597
6337,    2618,    5942,    5762,    2598
6338,    2619,    5943,    5763,    2599
6339,    2620,    5944,    5764,    2600
6340,    2621,    5945,    5765,    2601
6341,    2622,    5946,    5766,    2602
6342,    2623,    5947,    5767,    2603
6343,    2624,    5948,    5768,    2604
6344,    2625,    5949,    5769,    2605
6345,    2626,    5950,    5770,    2606
6346,    5931,    3008,    2988,    5751
6347,    5932,    3009,    2989,    5752
6348,    5933,    3010,    2990,    5753
6349,    5934,    3011,    2991,    5754
6350,    5935,    3012,    2992,    5755
6351,    5936,    3013,    2993,    5756
6352,    5937,    3014,    2994,    5757
6353,    5938,    3015,    2995,    5758
6354,    5939,    3016,    2996,    5759
6355,    5940,    3017,    2997,    5760
6356,    5941,    3018,    2998,    5761
6357,    5942,    3019,    2999,    5762
6358,    5943,    3020,    3000,    5763
6359,    5944,    3021,    3001,    5764
6360,    5945,    3022,    3002,    5765
6361,    5946,    3023,    3003,    5766
6362,    5947,    3024,    3004,    5767
6363,    5948,    3025,    3005,    5768
6364,    5949,    3026,    3006,    5769
6365,    5950,    3027,    3007,    5770
6366,    3008,    5951,    5771,    2988
6367,    3009,    5952,    5772,    2989
6368,    3010,    5953,    5773,    2990
6369,    3011,    5954,    5774,    2991
6370,    3012,    5955,    5775,    2992
6371,    3013,    5956,    5776,    2993
6372,    3014,    5957,    5777,    2994
6373,    3015,    5958,    5778,    2995
6374,    3016,    5959,    5779,    2996
6375,    3017,    5960,    5780,    2997
6376,    3018,    5961,    5781,    2998
6377,    3019,    5962,    5782,    2999
6378,    3020,    5963,    5783,    3000
6379,    3021,    5964,    5784,    3001
6380,    3022,    5965,    5785,    3002
6381,    3023,    5966,    5786,    3003
6382,    3024,    5967,    5787,    3004
6383,    3025,    5968,    5788,    3005
6384,    3026,    5969,    5789,    3006
6385,    3027,    5970,    5790,    3007
6386,    5951,    5971,    5791,    5771
6387,    5952,    5972,    5792,    5772
6388,    5953,    5973,    5793,    5773
6389,    5954,    5974,    5794,    5774
6390,    5955,    5975,    5795,    5775
6391,    5956,    5976,    5796,    5776
6392,    5957,    5977,    5797,    5777
6393,    5958,    5978,    5798,    5778
6394,    5959,    5979,    5799,    5779
6395,    5960,    5980,    5800,    5780
6396,    5961,    5981,    5801,    5781
6397,    5962,    5982,    5802,    5782
6398,    5963,    5983,    5803,    5783
6399,    5964,    5984,    5804,    5784
6400,    5965,    5985,    5805,    5785
6401,    5966,    5986,    5806,    5786
6402,    5967,    5987,    5807,    5787
6403,    5968,    5988,    5808,    5788
6404,    5969,    5989,    5809,    5789
6405,    5970,    5990,    5810,    5790
6406,    5991,    5992,    5812,    5811
6407,    5993,    5994,    5814,    5813
6408,    5995,    5996,    5816,    5815
6409,    5997,    5998,    5818,    5817
6410,    5999,    6000,    5820,    5819
6411,    6001,    6002,    5822,    5821
6412,    6003,    6004,    5824,    5823
6413,    6005,    6006,    5826,    5825
6414,    6007,    6008,    5828,    5827
6415,    6009,    6010,    5830,    5829
6416,    6011,    6012,    5832,    5831
6417,    6013,    6014,    5834,    5833
6418,    6015,    6016,    5836,    5835
6419,    6017,    6018,    5838,    5837
6420,    6019,    6020,    5840,    5839
6421,    6021,    6022,    5842,    5841
6422,    6023,    6024,    5844,    5843
6423,    6025,    6026,    5846,    5845
6424,    6027,    6028,    5848,    5847
6425,    6029,    6030,    5850,    5849
6426,    5992,    3830,    3810,    5812
6427,    5994,    3831,    3811,    5814
6428,    5996,    3832,    3812,    5816
6429,    5998,    3833,    3813,    5818
6430,    6000,    3834,    3814,    5820
6431,    6002,    3835,    3815,    5822
6432,    6004,    3836,    3816,    5824
6433,    6006,    3837,    3817,    5826
6434,    6008,    3838,    3818,    5828
6435,    6010,    3839,    3819,    5830
6436,    6012,    3840,    3820,    5832
6437,    6014,    3841,    3821,    5834
6438,    6016,    3842,    3822,    5836
6439,    6018,    3843,    3823,    5838
6440,    6020,    3844,    3824,    5840
6441,    6022,    3845,    3825,    5842
6442,    6024,    3846,    3826,    5844
6443,    6026,    3847,    3827,    5846
6444,    6028,    3848,    3828,    5848
6445,    6030,    3849,    3829,    5850
6446,    3830,    6031,    5851,    3810
6447,    3831,    6032,    5852,    3811
6448,    3832,    6033,    5853,    3812
6449,    3833,    6034,    5854,    3813
6450,    3834,    6035,    5855,    3814
6451,    3835,    6036,    5856,    3815
6452,    3836,    6037,    5857,    3816
6453,    3837,    6038,    5858,    3817
6454,    3838,    6039,    5859,    3818
6455,    3839,    6040,    5860,    3819
6456,    3840,    6041,    5861,    3820
6457,    3841,    6042,    5862,    3821
6458,    3842,    6043,    5863,    3822
6459,    3843,    6044,    5864,    3823
6460,    3844,    6045,    5865,    3824
6461,    3845,    6046,    5866,    3825
6462,    3846,    6047,    5867,    3826
6463,    3847,    6048,    5868,    3827
6464,    3848,    6049,    5869,    3828
6465,    3849,    6050,    5870,    3829
6466,    6031,    3429,    3409,    5851
6467,    6032,    3430,    3410,    5852
6468,    6033,    3431,    3411,    5853
6469,    6034,    3432,    3412,    5854
6470,    6035,    3433,    3413,    5855
6471,    6036,    3434,    3414,    5856
6472,    6037,    3435,    3415,    5857
6473,    6038,    3436,    3416,    5858
6474,    6039,    3437,    3417,    5859
6475,    6040,    3438,    3418,    5860
6476,    6041,    3439,    3419,    5861
6477,    6042,    3440,    3420,    5862
6478,    6043,    3441,    3421,    5863
6479,    6044,    3442,    3422,    5864
6480,    6045,    3443,    3423,    5865
6481,    6046,    3444,    3424,    5866
6482,    6047,    3445,    3425,    5867
6483,    6048,    3446,    3426,    5868
6484,    6049,    3447,    3427,    5869
6485,    6050,    3448,    3428,    5870
6486,    3429,    6051,    5871,    3409
6487,    3430,    6052,    5872,    3410
6488,    3431,    6053,    5873,    3411
6489,    3432,    6054,    5874,    3412
6490,    3433,    6055,    5875,    3413
6491,    3434,    6056,    5876,    3414
6492,    3435,    6057,    5877,    3415
6493,    3436,    6058,    5878,    3416
6494,    3437,    6059,    5879,    3417
6495,    3438,    6060,    5880,    3418
6496,    3439,    6061,    5881,    3419
6497,    3440,    6062,    5882,    3420
6498,    3441,    6063,    5883,    3421
6499,    3442,    6064,    5884,    3422
6500,    3443,    6065,    5885,    3423
6501,    3444,    6066,    5886,    3424
6502,    3445,    6067,    5887,    3425
6503,    3446,    6068,    5888,    3426
6504,    3447,    6069,    5889,    3427
6505,    3448,    6070,    5890,    3428
6506,    6051,    6071,    5891,    5871
6507,    6052,    6072,    5892,    5872
6508,    6053,    6073,    5893,    5873
6509,    6054,    6074,    5894,    5874
6510,    6055,    6075,    5895,    5875
6511,    6056,    6076,    5896,    5876
6512,    6057,    6077,    5897,    5877
6513,    6058,    6078,    5898,    5878
6514,    6059,    6079,    5899,    5879
6515,    6060,    6080,    5900,    5880
6516,    6061,    6081,    5901,    5881
6517,    6062,    6082,    5902,    5882
6518,    6063,    6083,    5903,    5883
6519,    6064,    6084,    5904,    5884
6520,    6065,    6085,    5905,    5885
6521,    6066,    6086,    5906,    5886
6522,    6067,    6087,    5907,    5887
6523,    6068,    6088,    5908,    5888
6524,    6069,    6089,    5909,    5889
6525,    6070,    6090,    5910,    5890
6526,    6071,    6091,    5911,    5891
6527,    6072,    6092,    5912,    5892
6528,    6073,    6093,    5913,    5893
6529,    6074,    6094,    5914,    5894
6530,    6075,    6095,    5915,    5895
6531,    6076,    6096,    5916,    5896
6532,    6077,    6097,    5917,    5897
6533,    6078,    6098,    5918,    5898
6534,    6079,    6099,    5919,    5899
6535,    6080,    6100,    5920,    5900
6536,    6081,    6101,    5921,    5901
6537,    6082,    6102,    5922,    5902
6538,    6083,    6103,    5923,    5903
6539,    6084,    6104,    5924,    5904
6540,    6085,    6105,    5925,    5905
6541,    6086,    6106,    5926,    5906
6542,    6087,    6107,    5927,    5907
6543,    6088,    6108,    5928,    5908
6544,    6089,    6109,    5929,    5909
6545,    6090,    6110,    5930,    5910
6546,    6091,    2627,    2607,    5911
6547,    6092,    2628,    2608,    5912
6548,    6093,    2629,    2609,    5913
6549,    6094,    2630,    2610,    5914
6550,    6095,    2631,    2611,    5915
6551,    6096,    2632,    2612,    5916
6552,    6097,    2633,    2613,    5917
6553,    6098,    2634,    2614,    5918
6554,    6099,    2635,    2615,    5919
6555,    6100,    2636,    2616,    5920
6556,    6101,    2637,    2617,    5921
6557,    6102,    2638,    2618,    5922
6558,    6103,    2639,    2619,    5923
6559,    6104,    2640,    2620,    5924
6560,    6105,    2641,    2621,    5925
6561,    6106,    2642,    2622,    5926
6562,    6107,    2643,    2623,    5927
6563,    6108,    2644,    2624,    5928
6564,    6109,    2645,    2625,    5929
6565,    6110,    2646,    2626,    5930
6566,    2627,    6111,    5931,    2607
6567,    2628,    6112,    5932,    2608
6568,    2629,    6113,    5933,    2609
6569,    2630,    6114,    5934,    2610
6570,    2631,    6115,    5935,    2611
6571,    2632,    6116,    5936,    2612
6572,    2633,    6117,    5937,    2613
6573,    2634,    6118,    5938,    2614
6574,    2635,    6119,    5939,    2615
6575,    2636,    6120,    5940,    2616
6576,    2637,    6121,    5941,    2617
6577,    2638,    6122,    5942,    2618
6578,    2639,    6123,    5943,    2619
6579,    2640,    6124,    5944,    2620
6580,    2641,    6125,    5945,    2621
6581,    2642,    6126,    5946,    2622
6582,    2643,    6127,    5947,    2623
6583,    2644,    6128,    5948,    2624
6584,    2645,    6129,    5949,    2625
6585,    2646,    6130,    5950,    2626
6586,    6111,    3028,    3008,    5931
6587,    6112,    3029,    3009,    5932
6588,    6113,    3030,    3010,    5933
6589,    6114,    3031,    3011,    5934
6590,    6115,    3032,    3012,    5935
6591,    6116,    3033,    3013,    5936
6592,    6117,    3034,    3014,    5937
6593,    6118,    3035,    3015,    5938
6594,    6119,    3036,    3016,    5939
6595,    6120,    3037,    3017,    5940
6596,    6121,    3038,    3018,    5941
6597,    6122,    3039,    3019,    5942
6598,    6123,    3040,    3020,    5943
6599,    6124,    3041,    3021,    5944
6600,    6125,    3042,    3022,    5945
6601,    6126,    3043,    3023,    5946
6602,    6127,    3044,    3024,    5947
6603,    6128,    3045,    3025,    5948
6604,    6129,    3046,    3026,    5949
6605,    6130,    3047,    3027,    5950
6606,    3028,    6131,    5951,    3008
6607,    3029,    6132,    5952,    3009
6608,    3030,    6133,    5953,    3010
6609,    3031,    6134,    5954,    3011
6610,    3032,    6135,    5955,    3012
6611,    3033,    6136,    5956,    3013
6612,    3034,    6137,    5957,    3014
6613,    3035,    6138,    5958,    3015
6614,    3036,    6139,    5959,    3016
6615,    3037,    6140,    5960,    3017
6616,    3038,    6141,    5961,    3018
6617,    3039,    6142,    5962,    3019
6618,    3040,    6143,    5963,    3020
6619,    3041,    6144,    5964,    3021
6620,    3042,    6145,    5965,    3022
6621,    3043,    6146,    5966,    3023
6622,    3044,    6147,    5967,    3024
6623,    3045,    6148,    5968,    3025
6624,    3046,    6149,    5969,    3026
6625,    3047,    6150,    5970,    3027
6626,    6131,    6151,    5971,    5951
6627,    6132,    6152,    5972,    5952
6628,    6133,    6153,    5973,    5953
6629,    6134,    6154,    5974,    5954
6630,    6135,    6155,    5975,    5955
6631,    6136,    6156,    5976,    5956
6632,    6137,    6157,    5977,    5957
6633,    6138,    6158,    5978,    5958
6634,    6139,    6159,    5979,    5959
6635,    6140,    6160,    5980,    5960
6636,    6141,    6161,    5981,    5961
6637,    6142,    6162,    5982,    5962
6638,    6143,    6163,    5983,    5963
6639,    6144,    6164,    5984,    5964
6640,    6145,    6165,    5985,    5965
6641,    6146,    6166,    5986,    5966
6642,    6147,    6167,    5987,    5967
6643,    6148,    6168,    5988,    5968
6644,    6149,    6169,    5989,    5969
6645,    6150,    6170,    5990,    5970
6646,    6171,    6172,    5992,    5991
6647,    6173,    6174,    5994,    5993
6648,    6175,    6176,    5996,    5995
6649,    6177,    6178,    5998,    5997
6650,    6179,    6180,    6000,    5999
6651,    6181,    6182,    6002,    6001
6652,    6183,    6184,    6004,    6003
6653,    6185,    6186,    6006,    6005
6654,    6187,    6188,    6008,    6007
6655,    6189,    6190,    6010,    6009
6656,    6191,    6192,    6012,    6011
6657,    6193,    6194,    6014,    6013
6658,    6195,    6196,    6016,    6015
6659,    6197,    6198,    6018,    6017
6660,    6199,    6200,    6020,    6019
6661,    6201,    6202,    6022,    6021
6662,    6203,    6204,    6024,    6023
6663,    6205,    6206,    6026,    6025
6664,    6207,    6208,    6028,    6027
6665,    6209,    6210,    6030,    6029
6666,    6172,    3850,    3830,    5992
6667,    6174,    3851,    3831,    5994
6668,    6176,    3852,    3832,    5996
6669,    6178,    3853,    3833,    5998
6670,    6180,    3854,    3834,    6000
6671,    6182,    3855,    3835,    6002
6672,    6184,    3856,    3836,    6004
6673,    6186,    3857,    3837,    6006
6674,    6188,    3858,    3838,    6008
6675,    6190,    3859,    3839,    6010
6676,    6192,    3860,    3840,    6012
6677,    6194,    3861,    3841,    6014
6678,    6196,    3862,    3842,    6016
6679,    6198,    3863,    3843,    6018
6680,    6200,    3864,    3844,    6020
6681,    6202,    3865,    3845,    6022
6682,    6204,    3866,    3846,    6024
6683,    6206,    3867,    3847,    6026
6684,    6208,    3868,    3848,    6028
6685,    6210,    3869,    3849,    6030
6686,    3850,    6211,    6031,    3830
6687,    3851,    6212,    6032,    3831
6688,    3852,    6213,    6033,    3832
6689,    3853,    6214,    6034,    3833
6690,    3854,    6215,    6035,    3834
6691,    3855,    6216,    6036,    3835
6692,    3856,    6217,    6037,    3836
6693,    3857,    6218,    6038,    3837
6694,    3858,    6219,    6039,    3838
6695,    3859,    6220,    6040,    3839
6696,    3860,    6221,    6041,    3840
6697,    3861,    6222,    6042,    3841
6698,    3862,    6223,    6043,    3842
6699,    3863,    6224,    6044,    3843
6700,    3864,    6225,    6045,    3844
6701,    3865,    6226,    6046,    3845
6702,    3866,    6227,    6047,    3846
6703,    3867,    6228,    6048,    3847
6704,    3868,    6229,    6049,    3848
6705,    3869,    6230,    6050,    3849
6706,    6211,    3449,    3429,    6031
6707,    6212,    3450,    3430,    6032
6708,    6213,    3451,    3431,    6033
6709,    6214,    3452,    3432,    6034
6710,    6215,    3453,    3433,    6035
6711,    6216,    3454,    3434,    6036
6712,    6217,    3455,    3435,    6037
6713,    6218,    3456,    3436,    6038
6714,    6219,    3457,    3437,    6039
6715,    6220,    3458,    3438,    6040
6716,    6221,    3459,    3439,    6041
6717,    6222,    3460,    3440,    6042
6718,    6223,    3461,    3441,    6043
6719,    6224,    3462,    3442,    6044
6720,    6225,    3463,    3443,    6045
6721,    6226,    3464,    3444,    6046
6722,    6227,    3465,    3445,    6047
6723,    6228,    3466,    3446,    6048
6724,    6229,    3467,    3447,    6049
6725,    6230,    3468,    3448,    6050
6726,    3449,    6231,    6051,    3429
6727,    3450,    6232,    6052,    3430
6728,    3451,    6233,    6053,    3431
6729,    3452,    6234,    6054,    3432
6730,    3453,    6235,    6055,    3433
6731,    3454,    6236,    6056,    3434
6732,    3455,    6237,    6057,    3435
6733,    3456,    6238,    6058,    3436
6734,    3457,    6239,    6059,    3437
6735,    3458,    6240,    6060,    3438
6736,    3459,    6241,    6061,    3439
6737,    3460,    6242,    6062,    3440
6738,    3461,    6243,    6063,    3441
6739,    3462,    6244,    6064,    3442
6740,    3463,    6245,    6065,    3443
6741,    3464,    6246,    6066,    3444
6742,    3465,    6247,    6067,    3445
6743,    3466,    6248,    6068,    3446
6744,    3467,    6249,    6069,    3447
6745,    3468,    6250,    6070,    3448
6746,    6231,    6251,    6071,    6051
6747,    6232,    6252,    6072,    6052
6748,    6233,    6253,    6073,    6053
6749,    6234,    6254,    6074,    6054
6750,    6235,    6255,    6075,    6055
6751,    6236,    6256,    6076,    6056
6752,    6237,    6257,    6077,    6057
6753,    6238,    6258,    6078,    6058
6754,    6239,    6259,    6079,    6059
6755,    6240,    6260,    6080,    6060
6756,    6241,    6261,    6081,    6061
6757,    6242,    6262,    6082,    6062
6758,    6243,    6263,    6083,    6063
6759,    6244,    6264,    6084,    6064
6760,    6245,    6265,    6085,    6065
6761,    6246,    6266,    6086,    6066
6762,    6247,    6267,    6087,    6067
6763,    6248,    6268,    6088,    6068
6764,    6249,    6269,    6089,    6069
6765,    6250,    6270,    6090,    6070
6766,    6251,    6271,    6091,    6071
6767,    6252,    6272,    6092,    6072
6768,    6253,    6273,    6093,    6073
6769,    6254,    6274,    6094,    6074
6770,    6255,    6275,    6095,    6075
6771,    6256,    6276,    6096,    6076
6772,    6257,    6277,    6097,    6077
6773,    6258,    6278,    6098,    6078
6774,    6259,    6279,    6099,    6079
6775,    6260,    6280,    6100,    6080
6776,    6261,    6281,    6101,    6081
6777,    6262,    6282,    6102,    6082
6778,    6263,    6283,    6103,    6083
6779,    6264,    6284,    6104,    6084
6780,    6265,    6285,    6105,    6085
6781,    6266,    6286,    6106,    6086
6782,    6267,    6287,    6107,    6087
6783,    6268,    6288,    6108,    6088
6784,    6269,    6289,    6109,    6089
6785,    6270,    6290,    6110,    6090
6786,    6271,    2647,    2627,    6091
6787,    6272,    2648,    2628,    6092
6788,    6273,    2649,    2629,    6093
6789,    6274,    2650,    2630,    6094
6790,    6275,    2651,    2631,    6095
6791,    6276,    2652,    2632,    6096
6792,    6277,    2653,    2633,    6097
6793,    6278,    2654,    2634,    6098
6794,    6279,    2655,    2635,    6099
6795,    6280,    2656,    2636,    6100
6796,    6281,    2657,    2637,    6101
6797,    6282,    2658,    2638,    6102
6798,    6283,    2659,    2639,    6103
6799,    6284,    2660,    2640,    6104
6800,    6285,    2661,    2641,    6105
6801,    6286,    2662,    2642,    6106
6802,    6287,    2663,    2643,    6107
6803,    6288,    2664,    2644,    6108
6804,    6289,    2665,    2645,    6109
6805,    6290,    2666,    2646,    6110
6806,    2647,    6291,    6111,    2627
6807,    2648,    6292,    6112,    2628
6808,    2649,    6293,    6113,    2629
6809,    2650,    6294,    6114,    2630
6810,    2651,    6295,    6115,    2631
6811,    2652,    6296,    6116,    2632
6812,    2653,    6297,    6117,    2633
6813,    2654,    6298,    6118,    2634
6814,    2655,    6299,    6119,    2635
6815,    2656,    6300,    6120,    2636
6816,    2657,    6301,    6121,    2637
6817,    2658,    6302,    6122,    2638
6818,    2659,    6303,    6123,    2639
6819,    2660,    6304,    6124,    2640
6820,    2661,    6305,    6125,    2641
6821,    2662,    6306,    6126,    2642
6822,    2663,    6307,    6127,    2643
6823,    2664,    6308,    6128,    2644
6824,    2665,    6309,    6129,    2645
6825,    2666,    6310,    6130,    2646
6826,    6291,    3048,    3028,    6111
6827,    6292,    3049,    3029,    6112
6828,    6293,    3050,    3030,    6113
6829,    6294,    3051,    3031,    6114
6830,    6295,    3052,    3032,    6115
6831,    6296,    3053,    3033,    6116
6832,    6297,    3054,    3034,    6117
6833,    6298,    3055,    3035,    6118
6834,    6299,    3056,    3036,    6119
6835,    6300,    3057,    3037,    6120
6836,    6301,    3058,    3038,    6121
6837,    6302,    3059,    3039,    6122
6838,    6303,    3060,    3040,    6123
6839,    6304,    3061,    3041,    6124
6840,    6305,    3062,    3042,    6125
6841,    6306,    3063,    3043,    6126
6842,    6307,    3064,    3044,    6127
6843,    6308,    3065,    3045,    6128
6844,    6309,    3066,    3046,    6129
6845,    6310,    3067,    3047,    6130
6846,    3048,    6311,    6131,    3028
6847,    3049,    6312,    6132,    3029
6848,    3050,    6313,    6133,    3030
6849,    3051,    6314,    6134,    3031
6850,    3052,    6315,    6135,    3032
6851,    3053,    6316,    6136,    3033
6852,    3054,    6317,    6137,    3034
6853,    3055,    6318,    6138,    3035
6854,    3056,    6319,    6139,    3036
6855,    3057,    6320,    6140,    3037
6856,    3058,    6321,    6141,    3038
6857,    3059,    6322,    6142,    3039
6858,    3060,    6323,    6143,    3040
6859,    3061,    6324,    6144,    3041
6860,    3062,    6325,    6145,    3042
6861,    3063,    6326,    6146,    3043
6862,    3064,    6327,    6147,    3044
6863,    3065,    6328,    6148,    3045
6864,    3066,    6329,    6149,    3046
6865,    3067,    6330,    6150,    3047
6866,    6311,    6331,    6151,    6131
6867,    6312,    6332,    6152,    6132
6868,    6313,    6333,    6153,    6133
6869,    6314,    6334,    6154,    6134
6870,    6315,    6335,    6155,    6135
6871,    6316,    6336,    6156,    6136
6872,    6317,    6337,    6157,    6137
6873,    6318,    6338,    6158,    6138
6874,    6319,    6339,    6159,    6139
6875,    6320,    6340,    6160,    6140
6876,    6321,    6341,    6161,    6141
6877,    6322,    6342,    6162,    6142
6878,    6323,    6343,    6163,    6143
6879,    6324,    6344,    6164,    6144
6880,    6325,    6345,    6165,    6145
6881,    6326,    6346,    6166,    6146
6882,    6327,    6347,    6167,    6147
6883,    6328,    6348,    6168,    6148
6884,    6329,    6349,    6169,    6149
6885,    6330,    6350,    6170,    6150
6886,    6351,    6352,    6172,    6171
6887,    6353,    6354,    6174,    6173
6888,    6355,    6356,    6176,    6175
6889,    6357,    6358,    6178,    6177
6890,    6359,    6360,    6180,    6179
6891,    6361,    6362,    6182,    6181
6892,    6363,    6364,    6184,    6183
6893,    6365,    6366,    6186,    6185
6894,    6367,    6368,    6188,    6187
6895,    6369,    6370,    6190,    6189
6896,    6371,    6372,    6192,    6191
6897,    6373,    6374,    6194,    6193
6898,    6375,    6376,    6196,    6195
6899,    6377,    6378,    6198,    6197
6900,    6379,    6380,    6200,    6199
6901,    6381,    6382,    6202,    6201
6902,    6383,    6384,    6204,    6203
6903,    6385,    6386,    6206,    6205
6904,    6387,    6388,    6208,    6207
6905,    6389,    6390,    6210,    6209
6906,    6352,    3870,    3850,    6172
6907,    6354,    3871,    3851,    6174
6908,    6356,    3872,    3852,    6176
6909,    6358,    3873,    3853,    6178
6910,    6360,    3874,    3854,    6180
6911,    6362,    3875,    3855,    6182
6912,    6364,    3876,    3856,    6184
6913,    6366,    3877,    3857,    6186
6914,    6368,    3878,    3858,    6188
6915,    6370,    3879,    3859,    6190
6916,    6372,    3880,    3860,    6192
6917,    6374,    3881,    3861,    6194
6918,    6376,    3882,    3862,    6196
6919,    6378,    3883,    3863,    6198
6920,    6380,    3884,    3864,    6200
6921,    6382,    3885,    3865,    6202
6922,    6384,    3886,    3866,    6204
6923,    6386,    3887,    3867,    6206
6924,    6388,    3888,    3868,    6208
6925,    6390,    3889,    3869,    6210
6926,    3870,    6391,    6211,    3850
6927,    3871,    6392,    6212,    3851
6928,    3872,    6393,    6213,    3852
6929,    3873,    6394,    6214,    3853
6930,    3874,    6395,    6215,    3854
6931,    3875,    6396,    6216,    3855
6932,    3876,    6397,    6217,    3856
6933,    3877,    6398,    6218,    3857
6934,    3878,    6399,    6219,    3858
6935,    3879,    6400,    6220,    3859
6936,    3880,    6401,    6221,    3860
6937,    3881,    6402,    6222,    3861
6938,    3882,    6403,    6223,    3862
6939,    3883,    6404,    6224,    3863
6940,    3884,    6405,    6225,    3864
6941,    3885,    6406,    6226,    3865
6942,    3886,    6407,    6227,    3866
6943,    3887,    6408,    6228,    3867
6944,    3888,    6409,    6229,    3868
6945,    3889,    6410,    6230,    3869
6946,    6391,    3469,    3449,    6211
6947,    6392,    3470,    3450,    6212
6948,    6393,    3471,    3451,    6213
6949,    6394,    3472,    3452,    6214
6950,    6395,    3473,    3453,    6215
6951,    6396,    3474,    3454,    6216
6952,    6397,    3475,    3455,    6217
6953,    6398,    3476,    3456,    6218
6954,    6399,    3477,    3457,    6219
6955,    6400,    3478,    3458,    6220
6956,    6401,    3479,    3459,    6221
6957,    6402,    3480,    3460,    6222
6958,    6403,    3481,    3461,    6223
6959,    6404,    3482,    3462,    6224
6960,    6405,    3483,    3463,    6225
6961,    6406,    3484,    3464,    6226
6962,    6407,    3485,    3465,    6227
6963,    6408,    3486,    3466,    6228
6964,    6409,    3487,    3467,    6229
6965,    6410,    3488,    3468,    6230
6966,    3469,    6411,    6231,    3449
6967,    3470,    6412,    6232,    3450
6968,    3471,    6413,    6233,    3451
6969,    3472,    6414,    6234,    3452
6970,    3473,    6415,    6235,    3453
6971,    3474,    6416,    6236,    3454
6972,    3475,    6417,    6237,    3455
6973,    3476,    6418,    6238,    3456
6974,    3477,    6419,    6239,    3457
6975,    3478,    6420,    6240,    3458
6976,    3479,    6421,    6241,    3459
6977,    3480,    6422,    6242,    3460
6978,    3481,    6423,    6243,    3461
6979,    3482,    6424,    6244,    3462
6980,    3483,    6425,    6245,    3463
6981,    3484,    6426,    6246,    3464
6982,    3485,    6427,    6247,    3465
6983,    3486,    6428,    6248,    3466
6984,    3487,    6429,    6249,    3467
6985,    3488,    6430,    6250,    3468
6986,    6411,    6431,    6251,    6231
6987,    6412,    6432,    6252,    6232
6988,    6413,    6433,    6253,    6233
6989,    6414,    6434,    6254,    6234
6990,    6415,    6435,    6255,    6235
6991,    6416,    6436,    6256,    6236
6992,    6417,    6437,    6257,    6237
6993,    6418,    6438,    6258,    6238
6994,    6419,    6439,    6259,    6239
6995,    6420,    6440,    6260,    6240
6996,    6421,    6441,    6261,    6241
6997,    6422,    6442,    6262,    6242
6998,    6423,    6443,    6263,    6243
6999,    6424,    6444,    6264,    6244
7000,    6425,    6445,    6265,    6245
7001,    6426,    6446,    6266,    6246
7002,    6427,    6447,    6267,    6247
7003,    6428,    6448,    6268,    6248
7004,    6429,    6449,    6269,    6249
7005,    6430,    6450,    6270,    6250
7006,    6431,    6451,    6271,    6251
7007,    6432,    6452,    6272,    6252
7008,    6433,    6453,    6273,    6253
7009,    6434,    6454,    6274,    6254
7010,    6435,    6455,    6275,    6255
7011,    6436,    6456,    6276,    6256
7012,    6437,    6457,    6277,    6257
7013,    6438,    6458,    6278,    6258
7014,    6439,    6459,    6279,    6259
7015,    6440,    6460,    6280,    6260
7016,    6441,    6461,    6281,    6261
7017,    6442,    6462,    6282,    6262
7018,    6443,    6463,    6283,    6263
7019,    6444,    6464,    6284,    6264
7020,    6445,    6465,    6285,    6265
7021,    6446,    6466,    6286,    6266
7022,    6447,    6467,    6287,    6267
7023,    6448,    6468,    6288,    6268
7024,    6449,    6469,    6289,    6269
7025,    6450,    6470,    6290,    6270
7026,    6451,    2667,    2647,    6271
7027,    6452,    2668,    2648,    6272
7028,    6453,    2669,    2649,    6273
7029,    6454,    2670,    2650,    6274
7030,    6455,    2671,    2651,    6275
7031,    6456,    2672,    2652,    6276
7032,    6457,    2673,    2653,    6277
7033,    6458,    2674,    2654,    6278
7034,    6459,    2675,    2655,    6279
7035,    6460,    2676,    2656,    6280
7036,    6461,    2677,    2657,    6281
7037,    6462,    2678,    2658,    6282
7038,    6463,    2679,    2659,    6283
7039,    6464,    2680,    2660,    6284
7040,    6465,    2681,    2661,    6285
7041,    6466,    2682,    2662,    6286
7042,    6467,    2683,    2663,    6287
7043,    6468,    2684,    2664,    6288
7044,    6469,    2685,    2665,    6289
7045,    6470,    2686,    2666,    6290
7046,    2667,    6471,    6291,    2647
7047,    2668,    6472,    6292,    2648
7048,    2669,    6473,    6293,    2649
7049,    2670,    6474,    6294,    2650
7050,    2671,    6475,    6295,    2651
7051,    2672,    6476,    6296,    2652
7052,    2673,    6477,    6297,    2653
7053,    2674,    6478,    6298,    2654
7054,    2675,    6479,    6299,    2655
7055,    2676,    6480,    6300,    2656
7056,    2677,    6481,    6301,    2657
7057,    2678,    6482,    6302,    2658
7058,    2679,    6483,    6303,    2659
7059,    2680,    6484,    6304,    2660
7060,    2681,    6485,    6305,    2661
7061,    2682,    6486,    6306,    2662
7062,    2683,    6487,    6307,    2663
7063,    2684,    6488,    6308,    2664
7064,    2685,    6489,    6309,    2665
7065,    2686,    6490,    6310,    2666
7066,    6471,    3068,    3048,    6291
7067,    6472,    3069,    3049,    6292
7068,    6473,    3070,    3050,    6293
7069,    6474,    3071,    3051,    6294
7070,    6475,    3072,    3052,    6295
7071,    6476,    3073,    3053,    6296
7072,    6477,    3074,    3054,    6297
7073,    6478,    3075,    3055,    6298
7074,    6479,    3076,    3056,    6299
7075,    6480,    3077,    3057,    6300
7076,    6481,    3078,    3058,    6301
7077,    6482,    3079,    3059,    6302
7078,    6483,    3080,    3060,    6303
7079,    6484,    3081,    3061,    6304
7080,    6485,    3082,    3062,    6305
7081,    6486,    3083,    3063,    6306
7082,    6487,    3084,    3064,    6307
7083,    6488,    3085,    3065,    6308
7084,    6489,    3086,    3066,    6309
7085,    6490,    3087,    3067,    6310
7086,    3068,    6491,    6311,    3048
7087,    3069,    6492,    6312,    3049
7088,    3070,    6493,    6313,    3050
7089,    3071,    6494,    6314,    3051
7090,    3072,    6495,    6315,    3052
7091,    3073,    6496,    6316,    3053
7092,    3074,    6497,    6317,    3054
7093,    3075,    6498,    6318,    3055
7094,    3076,    6499,    6319,    3056
7095,    3077,    6500,    6320,    3057
7096,    3078,    6501,    6321,    3058
7097,    3079,    6502,    6322,    3059
7098,    3080,    6503,    6323,    3060
7099,    3081,    6504,    6324,    3061
7100,    3082,    6505,    6325,    3062
7101,    3083,    6506,    6326,    3063
7102,    3084,    6507,    6327,    3064
7103,    3085,    6508,    6328,    3065
7104,    3086,    6509,    6329,    3066
7105,    3087,    6510,    6330,    3067
7106,    6491,    6511,    6331,    6311
7107,    6492,    6512,    6332,    6312
7108,    6493,    6513,    6333,    6313
7109,    6494,    6514,    6334,    6314
7110,    6495,    6515,    6335,    6315
7111,    6496,    6516,    6336,    6316
7112,    6497,    6517,    6337,    6317
7113,    6498,    6518,    6338,    6318
7114,    6499,    6519,    6339,    6319
7115,    6500,    6520,    6340,    6320
7116,    6501,    6521,    6341,    6321
7117,    6502,    6522,    6342,    6322
7118,    6503,    6523,    6343,    6323
7119,    6504,    6524,    6344,    6324
7120,    6505,    6525,    6345,    6325
7121,    6506,    6526,    6346,    6326
7122,    6507,    6527,    6347,    6327
7123,    6508,    6528,    6348,    6328
7124,    6509,    6529,    6349,    6329
7125,    6510,    6530,    6350,    6330
7126,    6531,    6532,    6352,    6351
7127,    6533,    6534,    6354,    6353
7128,    6535,    6536,    6356,    6355
7129,    6537,    6538,    6358,    6357
7130,    6539,    6540,    6360,    6359
7131,    6541,    6542,    6362,    6361
7132,    6543,    6544,    6364,    6363
7133,    6545,    6546,    6366,    6365
7134,    6547,    6548,    6368,    6367
7135,    6549,    6550,    6370,    6369
7136,    6551,    6552,    6372,    6371
7137,    6553,    6554,    6374,    6373
7138,    6555,    6556,    6376,    6375
7139,    6557,    6558,    6378,    6377
7140,    6559,    6560,    6380,    6379
7141,    6561,    6562,    6382,    6381
7142,    6563,    6564,    6384,    6383
7143,    6565,    6566,    6386,    6385
7144,    6567,    6568,    6388,    6387
7145,    6569,    6570,    6390,    6389
7146,    6532,    3890,    3870,    6352
7147,    6534,    3891,    3871,    6354
7148,    6536,    3892,    3872,    6356
7149,    6538,    3893,    3873,    6358
7150,    6540,    3894,    3874,    6360
7151,    6542,    3895,    3875,    6362
7152,    6544,    3896,    3876,    6364
7153,    6546,    3897,    3877,    6366
7154,    6548,    3898,    3878,    6368
7155,    6550,    3899,    3879,    6370
7156,    6552,    3900,    3880,    6372
7157,    6554,    3901,    3881,    6374
7158,    6556,    3902,    3882,    6376
7159,    6558,    3903,    3883,    6378
7160,    6560,    3904,    3884,    6380
7161,    6562,    3905,    3885,    6382
7162,    6564,    3906,    3886,    6384
7163,    6566,    3907,    3887,    6386
7164,    6568,    3908,    3888,    6388
7165,    6570,    3909,    3889,    6390
7166,    3890,    6571,    6391,    3870
7167,    3891,    6572,    6392,    3871
7168,    3892,    6573,    6393,    3872
7169,    3893,    6574,    6394,    3873
7170,    3894,    6575,    6395,    3874
7171,    3895,    6576,    6396,    3875
7172,    3896,    6577,    6397,    3876
7173,    3897,    6578,    6398,    3877
7174,    3898,    6579,    6399,    3878
7175,    3899,    6580,    6400,    3879
7176,    3900,    6581,    6401,    3880
7177,    3901,    6582,    6402,    3881
7178,    3902,    6583,    6403,    3882
7179,    3903,    6584,    6404,    3883
7180,    3904,    6585,    6405,    3884
7181,    3905,    6586,    6406,    3885
7182,    3906,    6587,    6407,    3886
7183,    3907,    6588,    6408,    3887
7184,    3908,    6589,    6409,    3888
7185,    3909,    6590,    6410,    3889
7186,    6571,    3489,    3469,    6391
7187,    6572,    3490,    3470,    6392
7188,    6573,    3491,    3471,    6393
7189,    6574,    3492,    3472,    6394
7190,    6575,    3493,    3473,    6395
7191,    6576,    3494,    3474,    6396
7192,    6577,    3495,    3475,    6397
7193,    6578,    3496,    3476,    6398
7194,    6579,    3497,    3477,    6399
7195,    6580,    3498,    3478,    6400
7196,    6581,    3499,    3479,    6401
7197,    6582,    3500,    3480,    6402
7198,    6583,    3501,    3481,    6403
7199,    6584,    3502,    3482,    6404
7200,    6585,    3503,    3483,    6405
7201,    6586,    3504,    3484,    6406
7202,    6587,    3505,    3485,    6407
7203,    6588,    3506,    3486,    6408
7204,    6589,    3507,    3487,    6409
7205,    6590,    3508,    3488,    6410
7206,    3489,    6591,    6411,    3469
7207,    3490,    6592,    6412,    3470
7208,    3491,    6593,    6413,    3471
7209,    3492,    6594,    6414,    3472
7210,    3493,    6595,    6415,    3473
7211,    3494,    6596,    6416,    3474
7212,    3495,    6597,    6417,    3475
7213,    3496,    6598,    6418,    3476
7214,    3497,    6599,    6419,    3477
7215,    3498,    6600,    6420,    3478
7216,    3499,    6601,    6421,    3479
7217,    3500,    6602,    6422,    3480
7218,    3501,    6603,    6423,    3481
7219,    3502,    6604,    6424,    3482
7220,    3503,    6605,    6425,    3483
7221,    3504,    6606,    6426,    3484
7222,    3505,    6607,    6427,    3485
7223,    3506,    6608,    6428,    3486
7224,    3507,    6609,    6429,    3487
7225,    3508,    6610,    6430,    3488
7226,    6591,    6611,    6431,    6411
7227,    6592,    6612,    6432,    6412
7228,    6593,    6613,    6433,    6413
7229,    6594,    6614,    6434,    6414
7230,    6595,    6615,    6435,    6415
7231,    6596,    6616,    6436,    6416
7232,    6597,    6617,    6437,    6417
7233,    6598,    6618,    6438,    6418
7234,    6599,    6619,    6439,    6419
7235,    6600,    6620,    6440,    6420
7236,    6601,    6621,    6441,    6421
7237,    6602,    6622,    6442,    6422
7238,    6603,    6623,    6443,    6423
7239,    6604,    6624,    6444,    6424
7240,    6605,    6625,    6445,    6425
7241,    6606,    6626,    6446,    6426
7242,    6607,    6627,    6447,    6427
7243,    6608,    6628,    6448,    6428
7244,    6609,    6629,    6449,    6429
7245,    6610,    6630,    6450,    6430
7246,    6611,    6631,    6451,    6431
7247,    6612,    6632,    6452,    6432
7248,    6613,    6633,    6453,    6433
7249,    6614,    6634,    6454,    6434
7250,    6615,    6635,    6455,    6435
7251,    6616,    6636,    6456,    6436
7252,    6617,    6637,    6457,    6437
7253,    6618,    6638,    6458,    6438
7254,    6619,    6639,    6459,    6439
7255,    6620,    6640,    6460,    6440
7256,    6621,    6641,    6461,    6441
7257,    6622,    6642,    6462,    6442
7258,    6623,    6643,    6463,    6443
7259,    6624,    6644,    6464,    6444
7260,    6625,    6645,    6465,    6445
7261,    6626,    6646,    6466,    6446
7262,    6627,    6647,    6467,    6447
7263,    6628,    6648,    6468,    6448
7264,    6629,    6649,    6469,    6449
7265,    6630,    6650,    6470,    6450
7266,    6631,    2687,    2667,    6451
7267,    6632,    2688,    2668,    6452
7268,    6633,    2689,    2669,    6453
7269,    6634,    2690,    2670,    6454
7270,    6635,    2691,    2671,    6455
7271,    6636,    2692,    2672,    6456
7272,    6637,    2693,    2673,    6457
7273,    6638,    2694,    2674,    6458
7274,    6639,    2695,    2675,    6459
7275,    6640,    2696,    2676,    6460
7276,    6641,    2697,    2677,    6461
7277,    6642,    2698,    2678,    6462
7278,    6643,    2699,    2679,    6463
7279,    6644,    2700,    2680,    6464
7280,    6645,    2701,    2681,    6465
7281,    6646,    2702,    2682,    6466
7282,    6647,    2703,    2683,    6467
7283,    6648,    2704,    2684,    6468
7284,    6649,    2705,    2685,    6469
7285,    6650,    2706,    2686,    6470
7286,    2687,    6651,    6471,    2667
7287,    2688,    6652,    6472,    2668
7288,    2689,    6653,    6473,    2669
7289,    2690,    6654,    6474,    2670
7290,    2691,    6655,    6475,    2671
7291,    2692,    6656,    6476,    2672
7292,    2693,    6657,    6477,    2673
7293,    2694,    6658,    6478,    2674
7294,    2695,    6659,    6479,    2675
7295,    2696,    6660,    6480,    2676
7296,    2697,    6661,    6481,    2677
7297,    2698,    6662,    6482,    2678
7298,    2699,    6663,    6483,    2679
7299,    2700,    6664,    6484,    2680
7300,    2701,    6665,    6485,    2681
7301,    2702,    6666,    6486,    2682
7302,    2703,    6667,    6487,    2683
7303,    2704,    6668,    6488,    2684
7304,    2705,    6669,    6489,    2685
7305,    2706,    6670,    6490,    2686
7306,    6651,    3088,    3068,    6471
7307,    6652,    3089,    3069,    6472
7308,    6653,    3090,    3070,    6473
7309,    6654,    3091,    3071,    6474
7310,    6655,    3092,    3072,    6475
7311,    6656,    3093,    3073,    6476
7312,    6657,    3094,    3074,    6477
7313,    6658,    3095,    3075,    6478
7314,    6659,    3096,    3076,    6479
7315,    6660,    3097,    3077,    6480
7316,    6661,    3098,    3078,    6481
7317,    6662,    3099,    3079,    6482
7318,    6663,    3100,    3080,    6483
7319,    6664,    3101,    3081,    6484
7320,    6665,    3102,    3082,    6485
7321,    6666,    3103,    3083,    6486
7322,    6667,    3104,    3084,    6487
7323,    6668,    3105,    3085,    6488
7324,    6669,    3106,    3086,    6489
7325,    6670,    3107,    3087,    6490
7326,    3088,    6671,    6491,    3068
7327,    3089,    6672,    6492,    3069
7328,    3090,    6673,    6493,    3070
7329,    3091,    6674,    6494,    3071
7330,    3092,    6675,    6495,    3072
7331,    3093,    6676,    6496,    3073
7332,    3094,    6677,    6497,    3074
7333,    3095,    6678,    6498,    3075
7334,    3096,    6679,    6499,    3076
7335,    3097,    6680,    6500,    3077
7336,    3098,    6681,    6501,    3078
7337,    3099,    6682,    6502,    3079
7338,    3100,    6683,    6503,    3080
7339,    3101,    6684,    6504,    3081
7340,    3102,    6685,    6505,    3082
7341,    3103,    6686,    6506,    3083
7342,    3104,    6687,    6507,    3084
7343,    3105,    6688,    6508,    3085
7344,    3106,    6689,    6509,    3086
7345,    3107,    6690,    6510,    3087
7346,    6671,    6691,    6511,    6491
7347,    6672,    6692,    6512,    6492
7348,    6673,    6693,    6513,    6493
7349,    6674,    6694,    6514,    6494
7350,    6675,    6695,    6515,    6495
7351,    6676,    6696,    6516,    6496
7352,    6677,    6697,    6517,    6497
7353,    6678,    6698,    6518,    6498
7354,    6679,    6699,    6519,    6499
7355,    6680,    6700,    6520,    6500
7356,    6681,    6701,    6521,    6501
7357,    6682,    6702,    6522,    6502
7358,    6683,    6703,    6523,    6503
7359,    6684,    6704,    6524,    6504
7360,    6685,    6705,    6525,    6505
7361,    6686,    6706,    6526,    6506
7362,    6687,    6707,    6527,    6507
7363,    6688,    6708,    6528,    6508
7364,    6689,    6709,    6529,    6509
7365,    6690,    6710,    6530,    6510
7366,    6711,    6712,    6532,    6531
7367,    6713,    6714,    6534,    6533
7368,    6715,    6716,    6536,    6535
7369,    6717,    6718,    6538,    6537
7370,    6719,    6720,    6540,    6539
7371,    6721,    6722,    6542,    6541
7372,    6723,    6724,    6544,    6543
7373,    6725,    6726,    6546,    6545
7374,    6727,    6728,    6548,    6547
7375,    6729,    6730,    6550,    6549
7376,    6731,    6732,    6552,    6551
7377,    6733,    6734,    6554,    6553
7378,    6735,    6736,    6556,    6555
7379,    6737,    6738,    6558,    6557
7380,    6739,    6740,    6560,    6559
7381,    6741,    6742,    6562,    6561
7382,    6743,    6744,    6564,    6563
7383,    6745,    6746,    6566,    6565
7384,    6747,    6748,    6568,    6567
7385,    6749,    6750,    6570,    6569
7386,    6712,    3910,    3890,    6532
7387,    6714,    3911,    3891,    6534
7388,    6716,    3912,    3892,    6536
7389,    6718,    3913,    3893,    6538
7390,    6720,    3914,    3894,    6540
7391,    6722,    3915,    3895,    6542
7392,    6724,    3916,    3896,    6544
7393,    6726,    3917,    3897,    6546
7394,    6728,    3918,    3898,    6548
7395,    6730,    3919,    3899,    6550
7396,    6732,    3920,    3900,    6552
7397,    6734,    3921,    3901,    6554
7398,    6736,    3922,    3902,    6556
7399,    6738,    3923,    3903,    6558
7400,    6740,    3924,    3904,    6560
7401,    6742,    3925,    3905,    6562
7402,    6744,    3926,    3906,    6564
7403,    6746,    3927,    3907,    6566
7404,    6748,    3928,    3908,    6568
7405,    6750,    3929,    3909,    6570
7406,    3910,    6751,    6571,    3890
7407,    3911,    6752,    6572,    3891
7408,    3912,    6753,    6573,    3892
7409,    3913,    6754,    6574,    3893
7410,    3914,    6755,    6575,    3894
7411,    3915,    6756,    6576,    3895
7412,    3916,    6757,    6577,    3896
7413,    3917,    6758,    6578,    3897
7414,    3918,    6759,    6579,    3898
7415,    3919,    6760,    6580,    3899
7416,    3920,    6761,    6581,    3900
7417,    3921,    6762,    6582,    3901
7418,    3922,    6763,    6583,    3902
7419,    3923,    6764,    6584,    3903
7420,    3924,    6765,    6585,    3904
7421,    3925,    6766,    6586,    3905
7422,    3926,    6767,    6587,    3906
7423,    3927,    6768,    6588,    3907
7424,    3928,    6769,    6589,    3908
7425,    3929,    6770,    6590,    3909
7426,    6751,    3509,    3489,    6571
7427,    6752,    3510,    3490,    6572
7428,    6753,    3511,    3491,    6573
7429,    6754,    3512,    3492,    6574
7430,    6755,    3513,    3493,    6575
7431,    6756,    3514,    3494,    6576
7432,    6757,    3515,    3495,    6577
7433,    6758,    3516,    3496,    6578
7434,    6759,    3517,    3497,    6579
7435,    6760,    3518,    3498,    6580
7436,    6761,    3519,    3499,    6581
7437,    6762,    3520,    3500,    6582
7438,    6763,    3521,    3501,    6583
7439,    6764,    3522,    3502,    6584
7440,    6765,    3523,    3503,    6585
7441,    6766,    3524,    3504,    6586
7442,    6767,    3525,    3505,    6587
7443,    6768,    3526,    3506,    6588
7444,    6769,    3527,    3507,    6589
7445,    6770,    3528,    3508,    6590
7446,    3509,    6771,    6591,    3489
7447,    3510,    6772,    6592,    3490
7448,    3511,    6773,    6593,    3491
7449,    3512,    6774,    6594,    3492
7450,    3513,    6775,    6595,    3493
7451,    3514,    6776,    6596,    3494
7452,    3515,    6777,    6597,    3495
7453,    3516,    6778,    6598,    3496
7454,    3517,    6779,    6599,    3497
7455,    3518,    6780,    6600,    3498
7456,    3519,    6781,    6601,    3499
7457,    3520,    6782,    6602,    3500
7458,    3521,    6783,    6603,    3501
7459,    3522,    6784,    6604,    3502
7460,    3523,    6785,    6605,    3503
7461,    3524,    6786,    6606,    3504
7462,    3525,    6787,    6607,    3505
7463,    3526,    6788,    6608,    3506
7464,    3527,    6789,    6609,    3507
7465,    3528,    6790,    6610,    3508
7466,    6771,    6791,    6611,    6591
7467,    6772,    6792,    6612,    6592
7468,    6773,    6793,    6613,    6593
7469,    6774,    6794,    6614,    6594
7470,    6775,    6795,    6615,    6595
7471,    6776,    6796,    6616,    6596
7472,    6777,    6797,    6617,    6597
7473,    6778,    6798,    6618,    6598
7474,    6779,    6799,    6619,    6599
7475,    6780,    6800,    6620,    6600
7476,    6781,    6801,    6621,    6601
7477,    6782,    6802,    6622,    6602
7478,    6783,    6803,    6623,    6603
7479,    6784,    6804,    6624,    6604
7480,    6785,    6805,    6625,    6605
7481,    6786,    6806,    6626,    6606
7482,    6787,    6807,    6627,    6607
7483,    6788,    6808,    6628,    6608
7484,    6789,    6809,    6629,    6609
7485,    6790,    6810,    6630,    6610
7486,    6791,    6811,    6631,    6611
7487,    6792,    6812,    6632,    6612
7488,    6793,    6813,    6633,    6613
7489,    6794,    6814,    6634,    6614
7490,    6795,    6815,    6635,    6615
7491,    6796,    6816,    6636,    6616
7492,    6797,    6817,    6637,    6617
7493,    6798,    6818,    6638,    6618
7494,    6799,    6819,    6639,    6619
7495,    6800,    6820,    6640,    6620
7496,    6801,    6821,    6641,    6621
7497,    6802,    6822,    6642,    6622
7498,    6803,    6823,    6643,    6623
7499,    6804,    6824,    6644,    6624
7500,    6805,    6825,    6645,    6625
7501,    6806,    6826,    6646,    6626
7502,    6807,    6827,    6647,    6627
7503,    6808,    6828,    6648,    6628
7504,    6809,    6829,    6649,    6629
7505,    6810,    6830,    6650,    6630
7506,    6811,    2707,    2687,    6631
7507,    6812,    2708,    2688,    6632
7508,    6813,    2709,    2689,    6633
7509,    6814,    2710,    2690,    6634
7510,    6815,    2711,    2691,    6635
7511,    6816,    2712,    2692,    6636
7512,    6817,    2713,    2693,    6637
7513,    6818,    2714,    2694,    6638
7514,    6819,    2715,    2695,    6639
7515,    6820,    2716,    2696,    6640
7516,    6821,    2717,    2697,    6641
7517,    6822,    2718,    2698,    6642
7518,    6823,    2719,    2699,    6643
7519,    6824,    2720,    2700,    6644
7520,    6825,    2721,    2701,    6645
7521,    6826,    2722,    2702,    6646
7522,    6827,    2723,    2703,    6647
7523,    6828,    2724,    2704,    6648
7524,    6829,    2725,    2705,    6649
7525,    6830,    2726,    2706,    6650
7526,    2707,    6831,    6651,    2687
7527,    2708,    6832,    6652,    2688
7528,    2709,    6833,    6653,    2689
7529,    2710,    6834,    6654,    2690
7530,    2711,    6835,    6655,    2691
7531,    2712,    6836,    6656,    2692
7532,    2713,    6837,    6657,    2693
7533,    2714,    6838,    6658,    2694
7534,    2715,    6839,    6659,    2695
7535,    2716,    6840,    6660,    2696
7536,    2717,    6841,    6661,    2697
7537,    2718,    6842,    6662,    2698
7538,    2719,    6843,    6663,    2699
7539,    2720,    6844,    6664,    2700
7540,    2721,    6845,    6665,    2701
7541,    2722,    6846,    6666,    2702
7542,    2723,    6847,    6667,    2703
7543,    2724,    6848,    6668,    2704
7544,    2725,    6849,    6669,    2705
7545,    2726,    6850,    6670,    2706
7546,    6831,    3108,    3088,    6651
7547,    6832,    3109,    3089,    6652
7548,    6833,    3110,    3090,    6653
7549,    6834,    3111,    3091,    6654
7550,    6835,    3112,    3092,    6655
7551,    6836,    3113,    3093,    6656
7552,    6837,    3114,    3094,    6657
7553,    6838,    3115,    3095,    6658
7554,    6839,    3116,    3096,    6659
7555,    6840,    3117,    3097,    6660
7556,    6841,    3118,    3098,    6661
7557,    6842,    3119,    3099,    6662
7558,    6843,    3120,    3100,    6663
7559,    6844,    3121,    3101,    6664
7560,    6845,    3122,    3102,    6665
7561,    6846,    3123,    3103,    6666
7562,    6847,    3124,    3104,    6667
7563,    6848,    3125,    3105,    6668
7564,    6849,    3126,    3106,    6669
7565,    6850,    3127,    3107,    6670
7566,    3108,    6851,    6671,    3088
7567,    3109,    6852,    6672,    3089
7568,    3110,    6853,    6673,    3090
7569,    3111,    6854,    6674,    3091
7570,    3112,    6855,    6675,    3092
7571,    3113,    6856,    6676,    3093
7572,    3114,    6857,    6677,    3094
7573,    3115,    6858,    6678,    3095
7574,    3116,    6859,    6679,    3096
7575,    3117,    6860,    6680,    3097
7576,    3118,    6861,    6681,    3098
7577,    3119,    6862,    6682,    3099
7578,    3120,    6863,    6683,    3100
7579,    3121,    6864,    6684,    3101
7580,    3122,    6865,    6685,    3102
7581,    3123,    6866,    6686,    3103
7582,    3124,    6867,    6687,    3104
7583,    3125,    6868,    6688,    3105
7584,    3126,    6869,    6689,    3106
7585,    3127,    6870,    6690,    3107
7586,    6851,    6871,    6691,    6671
7587,    6852,    6872,    6692,    6672
7588,    6853,    6873,    6693,    6673
7589,    6854,    6874,    6694,    6674
7590,    6855,    6875,    6695,    6675
7591,    6856,    6876,    6696,    6676
7592,    6857,    6877,    6697,    6677
7593,    6858,    6878,    6698,    6678
7594,    6859,    6879,    6699,    6679
7595,    6860,    6880,    6700,    6680
7596,    6861,    6881,    6701,    6681
7597,    6862,    6882,    6702,    6682
7598,    6863,    6883,    6703,    6683
7599,    6864,    6884,    6704,    6684
7600,    6865,    6885,    6705,    6685
7601,    6866,    6886,    6706,    6686
7602,    6867,    6887,    6707,    6687
7603,    6868,    6888,    6708,    6688
7604,    6869,    6889,    6709,    6689
7605,    6870,    6890,    6710,    6690
7606,    6891,    6892,    6712,    6711
7607,    6893,    6894,    6714,    6713
7608,    6895,    6896,    6716,    6715
7609,    6897,    6898,    6718,    6717
7610,    6899,    6900,    6720,    6719
7611,    6901,    6902,    6722,    6721
7612,    6903,    6904,    6724,    6723
7613,    6905,    6906,    6726,    6725
7614,    6907,    6908,    6728,    6727
7615,    6909,    6910,    6730,    6729
7616,    6911,    6912,    6732,    6731
7617,    6913,    6914,    6734,    6733
7618,    6915,    6916,    6736,    6735
7619,    6917,    6918,    6738,    6737
7620,    6919,    6920,    6740,    6739
7621,    6921,    6922,    6742,    6741
7622,    6923,    6924,    6744,    6743
7623,    6925,    6926,    6746,    6745
7624,    6927,    6928,    6748,    6747
7625,    6929,    6930,    6750,    6749
7626,    6892,    3930,    3910,    6712
7627,    6894,    3931,    3911,    6714
7628,    6896,    3932,    3912,    6716
7629,    6898,    3933,    3913,    6718
7630,    6900,    3934,    3914,    6720
7631,    6902,    3935,    3915,    6722
7632,    6904,    3936,    3916,    6724
7633,    6906,    3937,    3917,    6726
7634,    6908,    3938,    3918,    6728
7635,    6910,    3939,    3919,    6730
7636,    6912,    3940,    3920,    6732
7637,    6914,    3941,    3921,    6734
7638,    6916,    3942,    3922,    6736
7639,    6918,    3943,    3923,    6738
7640,    6920,    3944,    3924,    6740
7641,    6922,    3945,    3925,    6742
7642,    6924,    3946,    3926,    6744
7643,    6926,    3947,    3927,    6746
7644,    6928,    3948,    3928,    6748
7645,    6930,    3949,    3929,    6750
7646,    3930,    6931,    6751,    3910
7647,    3931,    6932,    6752,    3911
7648,    3932,    6933,    6753,    3912
7649,    3933,    6934,    6754,    3913
7650,    3934,    6935,    6755,    3914
7651,    3935,    6936,    6756,    3915
7652,    3936,    6937,    6757,    3916
7653,    3937,    6938,    6758,    3917
7654,    3938,    6939,    6759,    3918
7655,    3939,    6940,    6760,    3919
7656,    3940,    6941,    6761,    3920
7657,    3941,    6942,    6762,    3921
7658,    3942,    6943,    6763,    3922
7659,    3943,    6944,    6764,    3923
7660,    3944,    6945,    6765,    3924
7661,    3945,    6946,    6766,    3925
7662,    3946,    6947,    6767,    3926
7663,    3947,    6948,    6768,    3927
7664,    3948,    6949,    6769,    3928
7665,    3949,    6950,    6770,    3929
7666,    6931,    3529,    3509,    6751
7667,    6932,    3530,    3510,    6752
7668,    6933,    3531,    3511,    6753
7669,    6934,    3532,    3512,    6754
7670,    6935,    3533,    3513,    6755
7671,    6936,    3534,    3514,    6756
7672,    6937,    3535,    3515,    6757
7673,    6938,    3536,    3516,    6758
7674,    6939,    3537,    3517,    6759
7675,    6940,    3538,    3518,    6760
7676,    6941,    3539,    3519,    6761
7677,    6942,    3540,    3520,    6762
7678,    6943,    3541,    3521,    6763
7679,    6944,    3542,    3522,    6764
7680,    6945,    3543,    3523,    6765
7681,    6946,    3544,    3524,    6766
7682,    6947,    3545,    3525,    6767
7683,    6948,    3546,    3526,    6768
7684,    6949,    3547,    3527,    6769
7685,    6950,    3548,    3528,    6770
7686,    3529,    6951,    6771,    3509
7687,    3530,    6952,    6772,    3510
7688,    3531,    6953,    6773,    3511
7689,    3532,    6954,    6774,    3512
7690,    3533,    6955,    6775,    3513
7691,    3534,    6956,    6776,    3514
7692,    3535,    6957,    6777,    3515
7693,    3536,    6958,    6778,    3516
7694,    3537,    6959,    6779,    3517
7695,    3538,    6960,    6780,    3518
7696,    3539,    6961,    6781,    3519
7697,    3540,    6962,    6782,    3520
7698,    3541,    6963,    6783,    3521
7699,    3542,    6964,    6784,    3522
7700,    3543,    6965,    6785,    3523
7701,    3544,    6966,    6786,    3524
7702,    3545,    6967,    6787,    3525
7703,    3546,    6968,    6788,    3526
7704,    3547,    6969,    6789,    3527
7705,    3548,    6970,    6790,    3528
7706,    6951,    6971,    6791,    6771
7707,    6952,    6972,    6792,    6772
7708,    6953,    6973,    6793,    6773
7709,    6954,    6974,    6794,    6774
7710,    6955,    6975,    6795,    6775
7711,    6956,    6976,    6796,    6776
7712,    6957,    6977,    6797,    6777
7713,    6958,    6978,    6798,    6778
7714,    6959,    6979,    6799,    6779
7715,    6960,    6980,    6800,    6780
7716,    6961,    6981,    6801,    6781
7717,    6962,    6982,    6802,    6782
7718,    6963,    6983,    6803,    6783
7719,    6964,    6984,    6804,    6784
7720,    6965,    6985,    6805,    6785
7721,    6966,    6986,    6806,    6786
7722,    6967,    6987,    6807,    6787
7723,    6968,    6988,    6808,    6788
7724,    6969,    6989,    6809,    6789
7725,    6970,    6990,    6810,    6790
7726,    6971,    6991,    6811,    6791
7727,    6972,    6992,    6812,    6792
7728,    6973,    6993,    6813,    6793
7729,    6974,    6994,    6814,    6794
7730,    6975,    6995,    6815,    6795
7731,    6976,    6996,    6816,    6796
7732,    6977,    6997,    6817,    6797
7733,    6978,    6998,    6818,    6798
7734,    6979,    6999,    6819,    6799
7735,    6980,    7000,    6820,    6800
7736,    6981,    7001,    6821,    6801
7737,    6982,    7002,    6822,    6802
7738,    6983,    7003,    6823,    6803
7739,    6984,    7004,    6824,    6804
7740,    6985,    7005,    6825,    6805
7741,    6986,    7006,    6826,    6806
7742,    6987,    7007,    6827,    6807
7743,    6988,    7008,    6828,    6808
7744,    6989,    7009,    6829,    6809
7745,    6990,    7010,    6830,    6810
7746,    6991,    2727,    2707,    6811
7747,    6992,    2728,    2708,    6812
7748,    6993,    2729,    2709,    6813
7749,    6994,    2730,    2710,    6814
7750,    6995,    2731,    2711,    6815
7751,    6996,    2732,    2712,    6816
7752,    6997,    2733,    2713,    6817
7753,    6998,    2734,    2714,    6818
7754,    6999,    2735,    2715,    6819
7755,    7000,    2736,    2716,    6820
7756,    7001,    2737,    2717,    6821
7757,    7002,    2738,    2718,    6822
7758,    7003,    2739,    2719,    6823
7759,    7004,    2740,    2720,    6824
7760,    7005,    2741,    2721,    6825
7761,    7006,    2742,    2722,    6826
7762,    7007,    2743,    2723,    6827
7763,    7008,    2744,    2724,    6828
7764,    7009,    2745,    2725,    6829
7765,    7010,    2746,    2726,    6830
7766,    2727,    7011,    6831,    2707
7767,    2728,    7012,    6832,    2708
7768,    2729,    7013,    6833,    2709
7769,    2730,    7014,    6834,    2710
7770,    2731,    7015,    6835,    2711
7771,    2732,    7016,    6836,    2712
7772,    2733,    7017,    6837,    2713
7773,    2734,    7018,    6838,    2714
7774,    2735,    7019,    6839,    2715
7775,    2736,    7020,    6840,    2716
7776,    2737,    7021,    6841,    2717
7777,    2738,    7022,    6842,    2718
7778,    2739,    7023,    6843,    2719
7779,    2740,    7024,    6844,    2720
7780,    2741,    7025,    6845,    2721
7781,    2742,    7026,    6846,    2722
7782,    2743,    7027,    6847,    2723
7783,    2744,    7028,    6848,    2724
7784,    2745,    7029,    6849,    2725
7785,    2746,    7030,    6850,    2726
7786,    7011,    3128,    3108,    6831
7787,    7012,    3129,    3109,    6832
7788,    7013,    3130,    3110,    6833
7789,    7014,    3131,    3111,    6834
7790,    7015,    3132,    3112,    6835
7791,    7016,    3133,    3113,    6836
7792,    7017,    3134,    3114,    6837
7793,    7018,    3135,    3115,    6838
7794,    7019,    3136,    3116,    6839
7795,    7020,    3137,    3117,    6840
7796,    7021,    3138,    3118,    6841
7797,    7022,    3139,    3119,    6842
7798,    7023,    3140,    3120,    6843
7799,    7024,    3141,    3121,    6844
7800,    7025,    3142,    3122,    6845
7801,    7026,    3143,    3123,    6846
7802,    7027,    3144,    3124,    6847
7803,    7028,    3145,    3125,    6848
7804,    7029,    3146,    3126,    6849
7805,    7030,    3147,    3127,    6850
7806,    3128,    7031,    6851,    3108
7807,    3129,    7032,    6852,    3109
7808,    3130,    7033,    6853,    3110
7809,    3131,    7034,    6854,    3111
7810,    3132,    7035,    6855,    3112
7811,    3133,    7036,    6856,    3113
7812,    3134,    7037,    6857,    3114
7813,    3135,    7038,    6858,    3115
7814,    3136,    7039,    6859,    3116
7815,    3137,    7040,    6860,    3117
7816,    3138,    7041,    6861,    3118
7817,    3139,    7042,    6862,    3119
7818,    3140,    7043,    6863,    3120
7819,    3141,    7044,    6864,    3121
7820,    3142,    7045,    6865,    3122
7821,    3143,    7046,    6866,    3123
7822,    3144,    7047,    6867,    3124
7823,    3145,    7048,    6868,    3125
7824,    3146,    7049,    6869,    3126
7825,    3147,    7050,    6870,    3127
7826,    7031,    7051,    6871,    6851
7827,    7032,    7052,    6872,    6852
7828,    7033,    7053,    6873,    6853
7829,    7034,    7054,    6874,    6854
7830,    7035,    7055,    6875,    6855
7831,    7036,    7056,    6876,    6856
7832,    7037,    7057,    6877,    6857
7833,    7038,    7058,    6878,    6858
7834,    7039,    7059,    6879,    6859
7835,    7040,    7060,    6880,    6860
7836,    7041,    7061,    6881,    6861
7837,    7042,    7062,    6882,    6862
7838,    7043,    7063,    6883,    6863
7839,    7044,    7064,    6884,    6864
7840,    7045,    7065,    6885,    6865
7841,    7046,    7066,    6886,    6866
7842,    7047,    7067,    6887,    6867
7843,    7048,    7068,    6888,    6868
7844,    7049,    7069,    6889,    6869
7845,    7050,    7070,    6890,    6870
7846,    7071,    7072,    6892,    6891
7847,    7073,    7074,    6894,    6893
7848,    7075,    7076,    6896,    6895
7849,    7077,    7078,    6898,    6897
7850,    7079,    7080,    6900,    6899
7851,    7081,    7082,    6902,    6901
7852,    7083,    7084,    6904,    6903
7853,    7085,    7086,    6906,    6905
7854,    7087,    7088,    6908,    6907
7855,    7089,    7090,    6910,    6909
7856,    7091,    7092,    6912,    6911
7857,    7093,    7094,    6914,    6913
7858,    7095,    7096,    6916,    6915
7859,    7097,    7098,    6918,    6917
7860,    7099,    7100,    6920,    6919
7861,    7101,    7102,    6922,    6921
7862,    7103,    7104,    6924,    6923
7863,    7105,    7106,    6926,    6925
7864,    7107,    7108,    6928,    6927
7865,    7109,    7110,    6930,    6929
7866,    7072,    3950,    3930,    6892
7867,    7074,    3951,    3931,    6894
7868,    7076,    3952,    3932,    6896
7869,    7078,    3953,    3933,    6898
7870,    7080,    3954,    3934,    6900
7871,    7082,    3955,    3935,    6902
7872,    7084,    3956,    3936,    6904
7873,    7086,    3957,    3937,    6906
7874,    7088,    3958,    3938,    6908
7875,    7090,    3959,    3939,    6910
7876,    7092,    3960,    3940,    6912
7877,    7094,    3961,    3941,    6914
7878,    7096,    3962,    3942,    6916
7879,    7098,    3963,    3943,    6918
7880,    7100,    3964,    3944,    6920
7881,    7102,    3965,    3945,    6922
7882,    7104,    3966,    3946,    6924
7883,    7106,    3967,    3947,    6926
7884,    7108,    3968,    3948,    6928
7885,    7110,    3969,    3949,    6930
7886,    3950,    7111,    6931,    3930
7887,    3951,    7112,    6932,    3931
7888,    3952,    7113,    6933,    3932
7889,    3953,    7114,    6934,    3933
7890,    3954,    7115,    6935,    3934
7891,    3955,    7116,    6936,    3935
7892,    3956,    7117,    6937,    3936
7893,    3957,    7118,    6938,    3937
7894,    3958,    7119,    6939,    3938
7895,    3959,    7120,    6940,    3939
7896,    3960,    7121,    6941,    3940
7897,    3961,    7122,    6942,    3941
7898,    3962,    7123,    6943,    3942
7899,    3963,    7124,    6944,    3943
7900,    3964,    7125,    6945,    3944
7901,    3965,    7126,    6946,    3945
7902,    3966,    7127,    6947,    3946
7903,    3967,    7128,    6948,    3947
7904,    3968,    7129,    6949,    3948
7905,    3969,    7130,    6950,    3949
7906,    7111,    3549,    3529,    6931
7907,    7112,    3550,    3530,    6932
7908,    7113,    3551,    3531,    6933
7909,    7114,    3552,    3532,    6934
7910,    7115,    3553,    3533,    6935
7911,    7116,    3554,    3534,    6936
7912,    7117,    3555,    3535,    6937
7913,    7118,    3556,    3536,    6938
7914,    7119,    3557,    3537,    6939
7915,    7120,    3558,    3538,    6940
7916,    7121,    3559,    3539,    6941
7917,    7122,    3560,    3540,    6942
7918,    7123,    3561,    3541,    6943
7919,    7124,    3562,    3542,    6944
7920,    7125,    3563,    3543,    6945
7921,    7126,    3564,    3544,    6946
7922,    7127,    3565,    3545,    6947
7923,    7128,    3566,    3546,    6948
7924,    7129,    3567,    3547,    6949
7925,    7130,    3568,    3548,    6950
7926,    3549,    7131,    6951,    3529
7927,    3550,    7132,    6952,    3530
7928,    3551,    7133,    6953,    3531
7929,    3552,    7134,    6954,    3532
7930,    3553,    7135,    6955,    3533
7931,    3554,    7136,    6956,    3534
7932,    3555,    7137,    6957,    3535
7933,    3556,    7138,    6958,    3536
7934,    3557,    7139,    6959,    3537
7935,    3558,    7140,    6960,    3538
7936,    3559,    7141,    6961,    3539
7937,    3560,    7142,    6962,    3540
7938,    3561,    7143,    6963,    3541
7939,    3562,    7144,    6964,    3542
7940,    3563,    7145,    6965,    3543
7941,    3564,    7146,    6966,    3544
7942,    3565,    7147,    6967,    3545
7943,    3566,    7148,    6968,    3546
7944,    3567,    7149,    6969,    3547
7945,    3568,    7150,    6970,    3548
7946,    7131,    7151,    6971,    6951
7947,    7132,    7152,    6972,    6952
7948,    7133,    7153,    6973,    6953
7949,    7134,    7154,    6974,    6954
7950,    7135,    7155,    6975,    6955
7951,    7136,    7156,    6976,    6956
7952,    7137,    7157,    6977,    6957
7953,    7138,    7158,    6978,    6958
7954,    7139,    7159,    6979,    6959
7955,    7140,    7160,    6980,    6960
7956,    7141,    7161,    6981,    6961
7957,    7142,    7162,    6982,    6962
7958,    7143,    7163,    6983,    6963
7959,    7144,    7164,    6984,    6964
7960,    7145,    7165,    6985,    6965
7961,    7146,    7166,    6986,    6966
7962,    7147,    7167,    6987,    6967
7963,    7148,    7168,    6988,    6968
7964,    7149,    7169,    6989,    6969
7965,    7150,    7170,    6990,    6970
7966,    7151,    7171,    6991,    6971
7967,    7152,    7172,    6992,    6972
7968,    7153,    7173,    6993,    6973
7969,    7154,    7174,    6994,    6974
7970,    7155,    7175,    6995,    6975
7971,    7156,    7176,    6996,    6976
7972,    7157,    7177,    6997,    6977
7973,    7158,    7178,    6998,    6978
7974,    7159,    7179,    6999,    6979
7975,    7160,    7180,    7000,    6980
7976,    7161,    7181,    7001,    6981
7977,    7162,    7182,    7002,    6982
7978,    7163,    7183,    7003,    6983
7979,    7164,    7184,    7004,    6984
7980,    7165,    7185,    7005,    6985
7981,    7166,    7186,    7006,    6986
7982,    7167,    7187,    7007,    6987
7983,    7168,    7188,    7008,    6988
7984,    7169,    7189,    7009,    6989
7985,    7170,    7190,    7010,    6990
7986,    7171,    2747,    2727,    6991
7987,    7172,    2748,    2728,    6992
7988,    7173,    2749,    2729,    6993
7989,    7174,    2750,    2730,    6994
7990,    7175,    2751,    2731,    6995
7991,    7176,    2752,    2732,    6996
7992,    7177,    2753,    2733,    6997
7993,    7178,    2754,    2734,    6998
7994,    7179,    2755,    2735,    6999
7995,    7180,    2756,    2736,    7000
7996,    7181,    2757,    2737,    7001
7997,    7182,    2758,    2738,    7002
7998,    7183,    2759,    2739,    7003
7999,    7184,    2760,    2740,    7004
8000,    7185,    2761,    2741,    7005
8001,    7186,    2762,    2742,    7006
8002,    7187,    2763,    2743,    7007
8003,    7188,    2764,    2744,    7008
8004,    7189,    2765,    2745,    7009
8005,    7190,    2766,    2746,    7010
8006,    2747,    7191,    7011,    2727
8007,    2748,    7192,    7012,    2728
8008,    2749,    7193,    7013,    2729
8009,    2750,    7194,    7014,    2730
8010,    2751,    7195,    7015,    2731
8011,    2752,    7196,    7016,    2732
8012,    2753,    7197,    7017,    2733
8013,    2754,    7198,    7018,    2734
8014,    2755,    7199,    7019,    2735
8015,    2756,    7200,    7020,    2736
8016,    2757,    7201,    7021,    2737
8017,    2758,    7202,    7022,    2738
8018,    2759,    7203,    7023,    2739
8019,    2760,    7204,    7024,    2740
8020,    2761,    7205,    7025,    2741
8021,    2762,    7206,    7026,    2742
8022,    2763,    7207,    7027,    2743
8023,    2764,    7208,    7028,    2744
8024,    2765,    7209,    7029,    2745
8025,    2766,    7210,    7030,    2746
8026,    7191,    3148,    3128,    7011
8027,    7192,    3149,    3129,    7012
8028,    7193,    3150,    3130,    7013
8029,    7194,    3151,    3131,    7014
8030,    7195,    3152,    3132,    7015
8031,    7196,    3153,    3133,    7016
8032,    7197,    3154,    3134,    7017
8033,    7198,    3155,    3135,    7018
8034,    7199,    3156,    3136,    7019
8035,    7200,    3157,    3137,    7020
8036,    7201,    3158,    3138,    7021
8037,    7202,    3159,    3139,    7022
8038,    7203,    3160,    3140,    7023
8039,    7204,    3161,    3141,    7024
8040,    7205,    3162,    3142,    7025
8041,    7206,    3163,    3143,    7026
8042,    7207,    3164,    3144,    7027
8043,    7208,    3165,    3145,    7028
8044,    7209,    3166,    3146,    7029
8045,    7210,    3167,    3147,    7030
8046,    3148,    7211,    7031,    3128
8047,    3149,    7212,    7032,    3129
8048,    3150,    7213,    7033,    3130
8049,    3151,    7214,    7034,    3131
8050,    3152,    7215,    7035,    3132
8051,    3153,    7216,    7036,    3133
8052,    3154,    7217,    7037,    3134
8053,    3155,    7218,    7038,    3135
8054,    3156,    7219,    7039,    3136
8055,    3157,    7220,    7040,    3137
8056,    3158,    7221,    7041,    3138
8057,    3159,    7222,    7042,    3139
8058,    3160,    7223,    7043,    3140
8059,    3161,    7224,    7044,    3141
8060,    3162,    7225,    7045,    3142
8061,    3163,    7226,    7046,    3143
8062,    3164,    7227,    7047,    3144
8063,    3165,    7228,    7048,    3145
8064,    3166,    7229,    7049,    3146
8065,    3167,    7230,    7050,    3147
8066,    7211,    7231,    7051,    7031
8067,    7212,    7232,    7052,    7032
8068,    7213,    7233,    7053,    7033
8069,    7214,    7234,    7054,    7034
8070,    7215,    7235,    7055,    7035
8071,    7216,    7236,    7056,    7036
8072,    7217,    7237,    7057,    7037
8073,    7218,    7238,    7058,    7038
8074,    7219,    7239,    7059,    7039
8075,    7220,    7240,    7060,    7040
8076,    7221,    7241,    7061,    7041
8077,    7222,    7242,    7062,    7042
8078,    7223,    7243,    7063,    7043
8079,    7224,    7244,    7064,    7044
8080,    7225,    7245,    7065,    7045
8081,    7226,    7246,    7066,    7046
8082,    7227,    7247,    7067,    7047
8083,    7228,    7248,    7068,    7048
8084,    7229,    7249,    7069,    7049
8085,    7230,    7250,    7070,    7050
8086,    7251,    7252,    7072,    7071
8087,    7253,    7254,    7074,    7073
8088,    7255,    7256,    7076,    7075
8089,    7257,    7258,    7078,    7077
8090,    7259,    7260,    7080,    7079
8091,    7261,    7262,    7082,    7081
8092,    7263,    7264,    7084,    7083
8093,    7265,    7266,    7086,    7085
8094,    7267,    7268,    7088,    7087
8095,    7269,    7270,    7090,    7089
8096,    7271,    7272,    7092,    7091
8097,    7273,    7274,    7094,    7093
8098,    7275,    7276,    7096,    7095
8099,    7277,    7278,    7098,    7097
8100,    7279,    7280,    7100,    7099
8101,    7281,    7282,    7102,    7101
8102,    7283,    7284,    7104,    7103
8103,    7285,    7286,    7106,    7105
8104,    7287,    7288,    7108,    7107
8105,    7289,    7290,    7110,    7109
8106,    7252,    3970,    3950,    7072
8107,    7254,    3971,    3951,    7074
8108,    7256,    3972,    3952,    7076
8109,    7258,    3973,    3953,    7078
8110,    7260,    3974,    3954,    7080
8111,    7262,    3975,    3955,    7082
8112,    7264,    3976,    3956,    7084
8113,    7266,    3977,    3957,    7086
8114,    7268,    3978,    3958,    7088
8115,    7270,    3979,    3959,    7090
8116,    7272,    3980,    3960,    7092
8117,    7274,    3981,    3961,    7094
8118,    7276,    3982,    3962,    7096
8119,    7278,    3983,    3963,    7098
8120,    7280,    3984,    3964,    7100
8121,    7282,    3985,    3965,    7102
8122,    7284,    3986,    3966,    7104
8123,    7286,    3987,    3967,    7106
8124,    7288,    3988,    3968,    7108
8125,    7290,    3989,    3969,    7110
8126,    3970,    7291,    7111,    3950
8127,    3971,    7292,    7112,    3951
8128,    3972,    7293,    7113,    3952
8129,    3973,    7294,    7114,    3953
8130,    3974,    7295,    7115,    3954
8131,    3975,    7296,    7116,    3955
8132,    3976,    7297,    7117,    3956
8133,    3977,    7298,    7118,    3957
8134,    3978,    7299,    7119,    3958
8135,    3979,    7300,    7120,    3959
8136,    3980,    7301,    7121,    3960
8137,    3981,    7302,    7122,    3961
8138,    3982,    7303,    7123,    3962
8139,    3983,    7304,    7124,    3963
8140,    3984,    7305,    7125,    3964
8141,    3985,    7306,    7126,    3965
8142,    3986,    7307,    7127,    3966
8143,    3987,    7308,    7128,    3967
8144,    3988,    7309,    7129,    3968
8145,    3989,    7310,    7130,    3969
8146,    7291,    3569,    3549,    7111
8147,    7292,    3570,    3550,    7112
8148,    7293,    3571,    3551,    7113
8149,    7294,    3572,    3552,    7114
8150,    7295,    3573,    3553,    7115
8151,    7296,    3574,    3554,    7116
8152,    7297,    3575,    3555,    7117
8153,    7298,    3576,    3556,    7118
8154,    7299,    3577,    3557,    7119
8155,    7300,    3578,    3558,    7120
8156,    7301,    3579,    3559,    7121
8157,    7302,    3580,    3560,    7122
8158,    7303,    3581,    3561,    7123
8159,    7304,    3582,    3562,    7124
8160,    7305,    3583,    3563,    7125
8161,    7306,    3584,    3564,    7126
8162,    7307,    3585,    3565,    7127
8163,    7308,    3586,    3566,    7128
8164,    7309,    3587,    3567,    7129
8165,    7310,    3588,    3568,    7130
8166,    3569,    7311,    7131,    3549
8167,    3570,    7312,    7132,    3550
8168,    3571,    7313,    7133,    3551
8169,    3572,    7314,    7134,    3552
8170,    3573,    7315,    7135,    3553
8171,    3574,    7316,    7136,    3554
8172,    3575,    7317,    7137,    3555
8173,    3576,    7318,    7138,    3556
8174,    3577,    7319,    7139,    3557
8175,    3578,    7320,    7140,    3558
8176,    3579,    7321,    7141,    3559
8177,    3580,    7322,    7142,    3560
8178,    3581,    7323,    7143,    3561
8179,    3582,    7324,    7144,    3562
8180,    3583,    7325,    7145,    3563
8181,    3584,    7326,    7146,    3564
8182,    3585,    7327,    7147,    3565
8183,    3586,    7328,    7148,    3566
8184,    3587,    7329,    7149,    3567
8185,    3588,    7330,    7150,    3568
8186,    7311,    7331,    7151,    7131
8187,    7312,    7332,    7152,    7132
8188,    7313,    7333,    7153,    7133
8189,    7314,    7334,    7154,    7134
8190,    7315,    7335,    7155,    7135
8191,    7316,    7336,    7156,    7136
8192,    7317,    7337,    7157,    7137
8193,    7318,    7338,    7158,    7138
8194,    7319,    7339,    7159,    7139
8195,    7320,    7340,    7160,    7140
8196,    7321,    7341,    7161,    7141
8197,    7322,    7342,    7162,    7142
8198,    7323,    7343,    7163,    7143
8199,    7324,    7344,    7164,    7144
8200,    7325,    7345,    7165,    7145
8201,    7326,    7346,    7166,    7146
8202,    7327,    7347,    7167,    7147
8203,    7328,    7348,    7168,    7148
8204,    7329,    7349,    7169,    7149
8205,    7330,    7350,    7170,    7150
8206,    7331,    7351,    7171,    7151
8207,    7332,    7352,    7172,    7152
8208,    7333,    7353,    7173,    7153
8209,    7334,    7354,    7174,    7154
8210,    7335,    7355,    7175,    7155
8211,    7336,    7356,    7176,    7156
8212,    7337,    7357,    7177,    7157
8213,    7338,    7358,    7178,    7158
8214,    7339,    7359,    7179,    7159
8215,    7340,    7360,    7180,    7160
8216,    7341,    7361,    7181,    7161
8217,    7342,    7362,    7182,    7162
8218,    7343,    7363,    7183,    7163
8219,    7344,    7364,    7184,    7164
8220,    7345,    7365,    7185,    7165
8221,    7346,    7366,    7186,    7166
8222,    7347,    7367,    7187,    7167
8223,    7348,    7368,    7188,    7168
8224,    7349,    7369,    7189,    7169
8225,    7350,    7370,    7190,    7170
8226,    7351,    2767,    2747,    7171
8227,    7352,    2768,    2748,    7172
8228,    7353,    2769,    2749,    7173
8229,    7354,    2770,    2750,    7174
8230,    7355,    2771,    2751,    7175
8231,    7356,    2772,    2752,    7176
8232,    7357,    2773,    2753,    7177
8233,    7358,    2774,    2754,    7178
8234,    7359,    2775,    2755,    7179
8235,    7360,    2776,    2756,    7180
8236,    7361,    2777,    2757,    7181
8237,    7362,    2778,    2758,    7182
8238,    7363,    2779,    2759,    7183
8239,    7364,    2780,    2760,    7184
8240,    7365,    2781,    2761,    7185
8241,    7366,    2782,    2762,    7186
8242,    7367,    2783,    2763,    7187
8243,    7368,    2784,    2764,    7188
8244,    7369,    2785,    2765,    7189
8245,    7370,    2786,    2766,    7190
8246,    2767,    7371,    7191,    2747
8247,    2768,    7372,    7192,    2748
8248,    2769,    7373,    7193,    2749
8249,    2770,    7374,    7194,    2750
8250,    2771,    7375,    7195,    2751
8251,    2772,    7376,    7196,    2752
8252,    2773,    7377,    7197,    2753
8253,    2774,    7378,    7198,    2754
8254,    2775,    7379,    7199,    2755
8255,    2776,    7380,    7200,    2756
8256,    2777,    7381,    7201,    2757
8257,    2778,    7382,    7202,    2758
8258,    2779,    7383,    7203,    2759
8259,    2780,    7384,    7204,    2760
8260,    2781,    7385,    7205,    2761
8261,    2782,    7386,    7206,    2762
8262,    2783,    7387,    7207,    2763
8263,    2784,    7388,    7208,    2764
8264,    2785,    7389,    7209,    2765
8265,    2786,    7390,    7210,    2766
8266,    7371,    3168,    3148,    7191
8267,    7372,    3169,    3149,    7192
8268,    7373,    3170,    3150,    7193
8269,    7374,    3171,    3151,    7194
8270,    7375,    3172,    3152,    7195
8271,    7376,    3173,    3153,    7196
8272,    7377,    3174,    3154,    7197
8273,    7378,    3175,    3155,    7198
8274,    7379,    3176,    3156,    7199
8275,    7380,    3177,    3157,    7200
8276,    7381,    3178,    3158,    7201
8277,    7382,    3179,    3159,    7202
8278,    7383,    3180,    3160,    7203
8279,    7384,    3181,    3161,    7204
8280,    7385,    3182,    3162,    7205
8281,    7386,    3183,    3163,    7206
8282,    7387,    3184,    3164,    7207
8283,    7388,    3185,    3165,    7208
8284,    7389,    3186,    3166,    7209
8285,    7390,    3187,    3167,    7210
8286,    3168,    7391,    7211,    3148
8287,    3169,    7392,    7212,    3149
8288,    3170,    7393,    7213,    3150
8289,    3171,    7394,    7214,    3151
8290,    3172,    7395,    7215,    3152
8291,    3173,    7396,    7216,    3153
8292,    3174,    7397,    7217,    3154
8293,    3175,    7398,    7218,    3155
8294,    3176,    7399,    7219,    3156
8295,    3177,    7400,    7220,    3157
8296,    3178,    7401,    7221,    3158
8297,    3179,    7402,    7222,    3159
8298,    3180,    7403,    7223,    3160
8299,    3181,    7404,    7224,    3161
8300,    3182,    7405,    7225,    3162
8301,    3183,    7406,    7226,    3163
8302,    3184,    7407,    7227,    3164
8303,    3185,    7408,    7228,    3165
8304,    3186,    7409,    7229,    3166
8305,    3187,    7410,    7230,    3167
8306,    7391,    7411,    7231,    7211
8307,    7392,    7412,    7232,    7212
8308,    7393,    7413,    7233,    7213
8309,    7394,    7414,    7234,    7214
8310,    7395,    7415,    7235,    7215
8311,    7396,    7416,    7236,    7216
8312,    7397,    7417,    7237,    7217
8313,    7398,    7418,    7238,    7218
8314,    7399,    7419,    7239,    7219
8315,    7400,    7420,    7240,    7220
8316,    7401,    7421,    7241,    7221
8317,    7402,    7422,    7242,    7222
8318,    7403,    7423,    7243,    7223
8319,    7404,    7424,    7244,    7224
8320,    7405,    7425,    7245,    7225
8321,    7406,    7426,    7246,    7226
8322,    7407,    7427,    7247,    7227
8323,    7408,    7428,    7248,    7228
8324,    7409,    7429,    7249,    7229
8325,    7410,    7430,    7250,    7230
8326,    7431,    7432,    7252,    7251
8327,    7433,    7434,    7254,    7253
8328,    7435,    7436,    7256,    7255
8329,    7437,    7438,    7258,    7257
8330,    7439,    7440,    7260,    7259
8331,    7441,    7442,    7262,    7261
8332,    7443,    7444,    7264,    7263
8333,    7445,    7446,    7266,    7265
8334,    7447,    7448,    7268,    7267
8335,    7449,    7450,    7270,    7269
8336,    7451,    7452,    7272,    7271
8337,    7453,    7454,    7274,    7273
8338,    7455,    7456,    7276,    7275
8339,    7457,    7458,    7278,    7277
8340,    7459,    7460,    7280,    7279
8341,    7461,    7462,    7282,    7281
8342,    7463,    7464,    7284,    7283
8343,    7465,    7466,    7286,    7285
8344,    7467,    7468,    7288,    7287
8345,    7469,    7470,    7290,    7289
8346,    7432,    3990,    3970,    7252
8347,    7434,    3991,    3971,    7254
8348,    7436,    3992,    3972,    7256
8349,    7438,    3993,    3973,    7258
8350,    7440,    3994,    3974,    7260
8351,    7442,    3995,    3975,    7262
8352,    7444,    3996,    3976,    7264
8353,    7446,    3997,    3977,    7266
8354,    7448,    3998,    3978,    7268
8355,    7450,    3999,    3979,    7270
8356,    7452,    4000,    3980,    7272
8357,    7454,    4001,    3981,    7274
8358,    7456,    4002,    3982,    7276
8359,    7458,    4003,    3983,    7278
8360,    7460,    4004,    3984,    7280
8361,    7462,    4005,    3985,    7282
8362,    7464,    4006,    3986,    7284
8363,    7466,    4007,    3987,    7286
8364,    7468,    4008,    3988,    7288
8365,    7470,    4009,    3989,    7290
8366,    3990,    7471,    7291,    3970
8367,    3991,    7472,    7292,    3971
8368,    3992,    7473,    7293,    3972
8369,    3993,    7474,    7294,    3973
8370,    3994,    7475,    7295,    3974
8371,    3995,    7476,    7296,    3975
8372,    3996,    7477,    7297,    3976
8373,    3997,    7478,    7298,    3977
8374,    3998,    7479,    7299,    3978
8375,    3999,    7480,    7300,    3979
8376,    4000,    7481,    7301,    3980
8377,    4001,    7482,    7302,    3981
8378,    4002,    7483,    7303,    3982
8379,    4003,    7484,    7304,    3983
8380,    4004,    7485,    7305,    3984
8381,    4005,    7486,    7306,    3985
8382,    4006,    7487,    7307,    3986
8383,    4007,    7488,    7308,    3987
8384,    4008,    7489,    7309,    3988
8385,    4009,    7490,    7310,    3989
8386,    7471,    3589,    3569,    7291
8387,    7472,    3590,    3570,    7292
8388,    7473,    3591,    3571,    7293
8389,    7474,    3592,    3572,    7294
8390,    7475,    3593,    3573,    7295
8391,    7476,    3594,    3574,    7296
8392,    7477,    3595,    3575,    7297
8393,    7478,    3596,    3576,    7298
8394,    7479,    3597,    3577,    7299
8395,    7480,    3598,    3578,    7300
8396,    7481,    3599,    3579,    7301
8397,    7482,    3600,    3580,    7302
8398,    7483,    3601,    3581,    7303
8399,    7484,    3602,    3582,    7304
8400,    7485,    3603,    3583,    7305
8401,    7486,    3604,    3584,    7306
8402,    7487,    3605,    3585,    7307
8403,    7488,    3606,    3586,    7308
8404,    7489,    3607,    3587,    7309
8405,    7490,    3608,    3588,    7310
8406,    3589,    7491,    7311,    3569
8407,    3590,    7492,    7312,    3570
8408,    3591,    7493,    7313,    3571
8409,    3592,    7494,    7314,    3572
8410,    3593,    7495,    7315,    3573
8411,    3594,    7496,    7316,    3574
8412,    3595,    7497,    7317,    3575
8413,    3596,    7498,    7318,    3576
8414,    3597,    7499,    7319,    3577
8415,    3598,    7500,    7320,    3578
8416,    3599,    7501,    7321,    3579
8417,    3600,    7502,    7322,    3580
8418,    3601,    7503,    7323,    3581
8419,    3602,    7504,    7324,    3582
8420,    3603,    7505,    7325,    3583
8421,    3604,    7506,    7326,    3584
8422,    3605,    7507,    7327,    3585
8423,    3606,    7508,    7328,    3586
8424,    3607,    7509,    7329,    3587
8425,    3608,    7510,    7330,    3588
8426,    7491,    7511,    7331,    7311
8427,    7492,    7512,    7332,    7312
8428,    7493,    7513,    7333,    7313
8429,    7494,    7514,    7334,    7314
8430,    7495,    7515,    7335,    7315
8431,    7496,    7516,    7336,    7316
8432,    7497,    7517,    7337,    7317
8433,    7498,    7518,    7338,    7318
8434,    7499,    7519,    7339,    7319
8435,    7500,    7520,    7340,    7320
8436,    7501,    7521,    7341,    7321
8437,    7502,    7522,    7342,    7322
8438,    7503,    7523,    7343,    7323
8439,    7504,    7524,    7344,    7324
8440,    7505,    7525,    7345,    7325
8441,    7506,    7526,    7346,    7326
8442,    7507,    7527,    7347,    7327
8443,    7508,    7528,    7348,    7328
8444,    7509,    7529,    7349,    7329
8445,    7510,    7530,    7350,    7330
8446,    7511,    7531,    7351,    7331
8447,    7512,    7532,    7352,    7332
8448,    7513,    7533,    7353,    7333
8449,    7514,    7534,    7354,    7334
8450,    7515,    7535,    7355,    7335
8451,    7516,    7536,    7356,    7336
8452,    7517,    7537,    7357,    7337
8453,    7518,    7538,    7358,    7338
8454,    7519,    7539,    7359,    7339
8455,    7520,    7540,    7360,    7340
8456,    7521,    7541,    7361,    7341
8457,    7522,    7542,    7362,    7342
8458,    7523,    7543,    7363,    7343
8459,    7524,    7544,    7364,    7344
8460,    7525,    7545,    7365,    7345
8461,    7526,    7546,    7366,    7346
8462,    7527,    7547,    7367,    7347
8463,    7528,    7548,    7368,    7348
8464,    7529,    7549,    7369,    7349
8465,    7530,    7550,    7370,    7350
8466,    7531,    2787,    2767,    7351
8467,    7532,    2788,    2768,    7352
8468,    7533,    2789,    2769,    7353
8469,    7534,    2790,    2770,    7354
8470,    7535,    2791,    2771,    7355
8471,    7536,    2792,    2772,    7356
8472,    7537,    2793,    2773,    7357
8473,    7538,    2794,    2774,    7358
8474,    7539,    2795,    2775,    7359
8475,    7540,    2796,    2776,    7360
8476,    7541,    2797,    2777,    7361
8477,    7542,    2798,    2778,    7362
8478,    7543,    2799,    2779,    7363
8479,    7544,    2800,    2780,    7364
8480,    7545,    2801,    2781,    7365
8481,    7546,    2802,    2782,    7366
8482,    7547,    2803,    2783,    7367
8483,    7548,    2804,    2784,    7368
8484,    7549,    2805,    2785,    7369
8485,    7550,    2806,    2786,    7370
8486,    2787,    7551,    7371,    2767
8487,    2788,    7552,    7372,    2768
8488,    2789,    7553,    7373,    2769
8489,    2790,    7554,    7374,    2770
8490,    2791,    7555,    7375,    2771
8491,    2792,    7556,    7376,    2772
8492,    2793,    7557,    7377,    2773
8493,    2794,    7558,    7378,    2774
8494,    2795,    7559,    7379,    2775
8495,    2796,    7560,    7380,    2776
8496,    2797,    7561,    7381,    2777
8497,    2798,    7562,    7382,    2778
8498,    2799,    7563,    7383,    2779
8499,    2800,    7564,    7384,    2780
8500,    2801,    7565,    7385,    2781
8501,    2802,    7566,    7386,    2782
8502,    2803,    7567,    7387,    2783
8503,    2804,    7568,    7388,    2784
8504,    2805,    7569,    7389,    2785
8505,    2806,    7570,    7390,    2786
8506,    7551,    3188,    3168,    7371
8507,    7552,    3189,    3169,    7372
8508,    7553,    3190,    3170,    7373
8509,    7554,    3191,    3171,    7374
8510,    7555,    3192,    3172,    7375
8511,    7556,    3193,    3173,    7376
8512,    7557,    3194,    3174,    7377
8513,    7558,    3195,    3175,    7378
8514,    7559,    3196,    3176,    7379
8515,    7560,    3197,    3177,    7380
8516,    7561,    3198,    3178,    7381
8517,    7562,    3199,    3179,    7382
8518,    7563,    3200,    3180,    7383
8519,    7564,    3201,    3181,    7384
8520,    7565,    3202,    3182,    7385
8521,    7566,    3203,    3183,    7386
8522,    7567,    3204,    3184,    7387
8523,    7568,    3205,    3185,    7388
8524,    7569,    3206,    3186,    7389
8525,    7570,    3207,    3187,    7390
8526,    3188,    7571,    7391,    3168
8527,    3189,    7572,    7392,    3169
8528,    3190,    7573,    7393,    3170
8529,    3191,    7574,    7394,    3171
8530,    3192,    7575,    7395,    3172
8531,    3193,    7576,    7396,    3173
8532,    3194,    7577,    7397,    3174
8533,    3195,    7578,    7398,    3175
8534,    3196,    7579,    7399,    3176
8535,    3197,    7580,    7400,    3177
8536,    3198,    7581,    7401,    3178
8537,    3199,    7582,    7402,    3179
8538,    3200,    7583,    7403,    3180
8539,    3201,    7584,    7404,    3181
8540,    3202,    7585,    7405,    3182
8541,    3203,    7586,    7406,    3183
8542,    3204,    7587,    7407,    3184
8543,    3205,    7588,    7408,    3185
8544,    3206,    7589,    7409,    3186
8545,    3207,    7590,    7410,    3187
8546,    7571,    7591,    7411,    7391
8547,    7572,    7592,    7412,    7392
8548,    7573,    7593,    7413,    7393
8549,    7574,    7594,    7414,    7394
8550,    7575,    7595,    7415,    7395
8551,    7576,    7596,    7416,    7396
8552,    7577,    7597,    7417,    7397
8553,    7578,    7598,    7418,    7398
8554,    7579,    7599,    7419,    7399
8555,    7580,    7600,    7420,    7400
8556,    7581,    7601,    7421,    7401
8557,    7582,    7602,    7422,    7402
8558,    7583,    7603,    7423,    7403
8559,    7584,    7604,    7424,    7404
8560,    7585,    7605,    7425,    7405
8561,    7586,    7606,    7426,    7406
8562,    7587,    7607,    7427,    7407
8563,    7588,    7608,    7428,    7408
8564,    7589,    7609,    7429,    7409
8565,    7590,    7610,    7430,    7410
8566,    4018,    4017,    7432,    7431
8567,    4022,    4021,    7434,    7433
8568,    4026,    4025,    7436,    7435
8569,    4030,    4029,    7438,    7437
8570,    4034,    4033,    7440,    7439
8571,    4038,    4037,    7442,    7441
8572,    4042,    4041,    7444,    7443
8573,    4046,    4045,    7446,    7445
8574,    4050,    4049,    7448,    7447
8575,    4054,    4053,    7450,    7449
8576,    4058,    4057,    7452,    7451
8577,    4062,    4061,    7454,    7453
8578,    4066,    4065,    7456,    7455
8579,    4070,    4069,    7458,    7457
8580,    4074,    4073,    7460,    7459
8581,    4078,    4077,    7462,    7461
8582,    4082,    4081,    7464,    7463
8583,    4086,    4085,    7466,    7465
8584,    4090,    4089,    7468,    7467
8585,    7611,    7612,    7470,    7469
8586,    4017,    3611,    3990,    7432
8587,    4021,    3612,    3991,    7434
8588,    4025,    3613,    3992,    7436
8589,    4029,    3614,    3993,    7438
8590,    4033,    3615,    3994,    7440
8591,    4037,    3616,    3995,    7442
8592,    4041,    3617,    3996,    7444
8593,    4045,    3618,    3997,    7446
8594,    4049,    3619,    3998,    7448
8595,    4053,    3620,    3999,    7450
8596,    4057,    3621,    4000,    7452
8597,    4061,    3622,    4001,    7454
8598,    4065,    3623,    4002,    7456
8599,    4069,    3624,    4003,    7458
8600,    4073,    3625,    4004,    7460
8601,    4077,    3626,    4005,    7462
8602,    4081,    3627,    4006,    7464
8603,    4085,    3628,    4007,    7466
8604,    4089,    3629,    4008,    7468
8605,    7612,    4010,    4009,    7470
8606,    3611,    4094,    7471,    3990
8607,    3612,    4096,    7472,    3991
8608,    3613,    4098,    7473,    3992
8609,    3614,    4100,    7474,    3993
8610,    3615,    4102,    7475,    3994
8611,    3616,    4104,    7476,    3995
8612,    3617,    4106,    7477,    3996
8613,    3618,    4108,    7478,    3997
8614,    3619,    4110,    7479,    3998
8615,    3620,    4112,    7480,    3999
8616,    3621,    4114,    7481,    4000
8617,    3622,    4116,    7482,    4001
8618,    3623,    4118,    7483,    4002
8619,    3624,    4120,    7484,    4003
8620,    3625,    4122,    7485,    4004
8621,    3626,    4124,    7486,    4005
8622,    3627,    4126,    7487,    4006
8623,    3628,    4128,    7488,    4007
8624,    3629,    4130,    7489,    4008
8625,    4010,    7613,    7490,    4009
8626,    4094,    3210,    3589,    7471
8627,    4096,    3211,    3590,    7472
8628,    4098,    3212,    3591,    7473
8629,    4100,    3213,    3592,    7474
8630,    4102,    3214,    3593,    7475
8631,    4104,    3215,    3594,    7476
8632,    4106,    3216,    3595,    7477
8633,    4108,    3217,    3596,    7478
8634,    4110,    3218,    3597,    7479
8635,    4112,    3219,    3598,    7480
8636,    4114,    3220,    3599,    7481
8637,    4116,    3221,    3600,    7482
8638,    4118,    3222,    3601,    7483
8639,    4120,    3223,    3602,    7484
8640,    4122,    3224,    3603,    7485
8641,    4124,    3225,    3604,    7486
8642,    4126,    3226,    3605,    7487
8643,    4128,    3227,    3606,    7488
8644,    4130,    3228,    3607,    7489
8645,    7613,    3609,    3608,    7490
8646,    3210,    4134,    7491,    3589
8647,    3211,    4136,    7492,    3590
8648,    3212,    4138,    7493,    3591
8649,    3213,    4140,    7494,    3592
8650,    3214,    4142,    7495,    3593
8651,    3215,    4144,    7496,    3594
8652,    3216,    4146,    7497,    3595
8653,    3217,    4148,    7498,    3596
8654,    3218,    4150,    7499,    3597
8655,    3219,    4152,    7500,    3598
8656,    3220,    4154,    7501,    3599
8657,    3221,    4156,    7502,    3600
8658,    3222,    4158,    7503,    3601
8659,    3223,    4160,    7504,    3602
8660,    3224,    4162,    7505,    3603
8661,    3225,    4164,    7506,    3604
8662,    3226,    4166,    7507,    3605
8663,    3227,    4168,    7508,    3606
8664,    3228,    4170,    7509,    3607
8665,    3609,    7614,    7510,    3608
8666,    4134,    4174,    7511,    7491
8667,    4136,    4176,    7512,    7492
8668,    4138,    4178,    7513,    7493
8669,    4140,    4180,    7514,    7494
8670,    4142,    4182,    7515,    7495
8671,    4144,    4184,    7516,    7496
8672,    4146,    4186,    7517,    7497
8673,    4148,    4188,    7518,    7498
8674,    4150,    4190,    7519,    7499
8675,    4152,    4192,    7520,    7500
8676,    4154,    4194,    7521,    7501
8677,    4156,    4196,    7522,    7502
8678,    4158,    4198,    7523,    7503
8679,    4160,    4200,    7524,    7504
8680,    4162,    4202,    7525,    7505
8681,    4164,    4204,    7526,    7506
8682,    4166,    4206,    7527,    7507
8683,    4168,    4208,    7528,    7508
8684,    4170,    4210,    7529,    7509
8685,    7614,    7615,    7530,    7510
8686,    4174,    4214,    7531,    7511
8687,    4176,    4216,    7532,    7512
8688,    4178,    4218,    7533,    7513
8689,    4180,    4220,    7534,    7514
8690,    4182,    4222,    7535,    7515
8691,    4184,    4224,    7536,    7516
8692,    4186,    4226,    7537,    7517
8693,    4188,    4228,    7538,    7518
8694,    4190,    4230,    7539,    7519
8695,    4192,    4232,    7540,    7520
8696,    4194,    4234,    7541,    7521
8697,    4196,    4236,    7542,    7522
8698,    4198,    4238,    7543,    7523
8699,    4200,    4240,    7544,    7524
8700,    4202,    4242,    7545,    7525
8701,    4204,    4244,    7546,    7526
8702,    4206,    4246,    7547,    7527
8703,    4208,    4248,    7548,    7528
8704,    4210,    4250,    7549,    7529
8705,    7615,    7616,    7550,    7530
8706,    4214,    2408,    2787,    7531
8707,    4216,    2409,    2788,    7532
8708,    4218,    2410,    2789,    7533
8709,    4220,    2411,    2790,    7534
8710,    4222,    2412,    2791,    7535
8711,    4224,    2413,    2792,    7536
8712,    4226,    2414,    2793,    7537
8713,    4228,    2415,    2794,    7538
8714,    4230,    2416,    2795,    7539
8715,    4232,    2417,    2796,    7540
8716,    4234,    2418,    2797,    7541
8717,    4236,    2419,    2798,    7542
8718,    4238,    2420,    2799,    7543
8719,    4240,    2421,    2800,    7544
8720,    4242,    2422,    2801,    7545
8721,    4244,    2423,    2802,    7546
8722,    4246,    2424,    2803,    7547
8723,    4248,    2425,    2804,    7548
8724,    4250,    2426,    2805,    7549
8725,    7616,    2807,    2806,    7550
8726,    2408,    4254,    7551,    2787
8727,    2409,    4256,    7552,    2788
8728,    2410,    4258,    7553,    2789
8729,    2411,    4260,    7554,    2790
8730,    2412,    4262,    7555,    2791
8731,    2413,    4264,    7556,    2792
8732,    2414,    4266,    7557,    2793
8733,    2415,    4268,    7558,    2794
8734,    2416,    4270,    7559,    2795
8735,    2417,    4272,    7560,    2796
8736,    2418,    4274,    7561,    2797
8737,    2419,    4276,    7562,    2798
8738,    2420,    4278,    7563,    2799
8739,    2421,    4280,    7564,    2800
8740,    2422,    4282,    7565,    2801
8741,    2423,    4284,    7566,    2802
8742,    2424,    4286,    7567,    2803
8743,    2425,    4288,    7568,    2804
8744,    2426,    4290,    7569,    2805
8745,    2807,    7617,    7570,    2806
8746,    4254,    2809,    3188,    7551
8747,    4256,    2810,    3189,    7552
8748,    4258,    2811,    3190,    7553
8749,    4260,    2812,    3191,    7554
8750,    4262,    2813,    3192,    7555
8751,    4264,    2814,    3193,    7556
8752,    4266,    2815,    3194,    7557
8753,    4268,    2816,    3195,    7558
8754,    4270,    2817,    3196,    7559
8755,    4272,    2818,    3197,    7560
8756,    4274,    2819,    3198,    7561
8757,    4276,    2820,    3199,    7562
8758,    4278,    2821,    3200,    7563
8759,    4280,    2822,    3201,    7564
8760,    4282,    2823,    3202,    7565
8761,    4284,    2824,    3203,    7566
8762,    4286,    2825,    3204,    7567
8763,    4288,    2826,    3205,    7568
8764,    4290,    2827,    3206,    7569
8765,    7617,    3208,    3207,    7570
8766,    2809,    4294,    7571,    3188
8767,    2810,    4296,    7572,    3189
8768,    2811,    4298,    7573,    3190
8769,    2812,    4300,    7574,    3191
8770,    2813,    4302,    7575,    3192
8771,    2814,    4304,    7576,    3193
8772,    2815,    4306,    7577,    3194
8773,    2816,    4308,    7578,    3195
8774,    2817,    4310,    7579,    3196
8775,    2818,    4312,    7580,    3197
8776,    2819,    4314,    7581,    3198
8777,    2820,    4316,    7582,    3199
8778,    2821,    4318,    7583,    3200
8779,    2822,    4320,    7584,    3201
8780,    2823,    4322,    7585,    3202
8781,    2824,    4324,    7586,    3203
8782,    2825,    4326,    7587,    3204
8783,    2826,    4328,    7588,    3205
8784,    2827,    4330,    7589,    3206
8785,    3208,    7618,    7590,    3207
8786,    4294,    4334,    7591,    7571
8787,    4296,    4336,    7592,    7572
8788,    4298,    4338,    7593,    7573
8789,    4300,    4340,    7594,    7574
8790,    4302,    4342,    7595,    7575
8791,    4304,    4344,    7596,    7576
8792,    4306,    4346,    7597,    7577
8793,    4308,    4348,    7598,    7578
8794,    4310,    4350,    7599,    7579
8795,    4312,    4352,    7600,    7580
8796,    4314,    4354,    7601,    7581
8797,    4316,    4356,    7602,    7582
8798,    4318,    4358,    7603,    7583
8799,    4320,    4360,    7604,    7584
8800,    4322,    4362,    7605,    7585
8801,    4324,    4364,    7606,    7586
8802,    4326,    4366,    7607,    7587
8803,    4328,    4368,    7608,    7588
8804,    4330,    4370,    7609,    7589
8805,    7618,    7619,    7610,    7590


*ELSET, ELSET=set0
   1,    2,    3,    4,    5,    6,    7,    8,    9,   10,   11,   12,   13,   14,   15,   16
  17,   18,   19,   20,   21,   22,   23,   24,   25,   26,   27,   28,   29,   30,   31,   32
  33,   34,   35,   36,   37,   38,   39,   40,   41,   42,   43,   44,   45,   46,   47,   48
  49,   50,   51,   52,   53,   54,   55,   56,   57,   58,   59,   60,   61,   62,   63,   64
  65,   66,   67,   68,   69,   70,   71,   72,   73,   74,   75,   76,   77,   78,   79,   80
  81,   82,   83,   84,   85,   86,   87,   88,   89,   90,   91,   92,   93,   94,   95,   96
  97,   98,   99,  100,  101,  102,  103,  104,  105,  106,  107,  108,  109,  110,  111,  112
 113,  114,  115,  116,  117,  118,  119,  120,  121,  122,  123,  124,  125,  126,  127,  128
 129,  130,  131,  132,  133,  134,  135,  136,  137,  138,  139,  140,  141,  142,  143,  144
 145,  146,  147,  148,  149,  150,  151,  152,  153,  154,  155,  156,  157,  158,  159,  160
 161,  162,  163,  164,  165,  166,  167,  168,  169,  170,  171,  172,  173,  174,  175,  176
 177,  178,  179,  180,  181,  182,  183,  184,  185,  186,  187,  188,  189,  190,  191,  192
 193,  194,  195,  196,  197,  198,  199,  200,  201,  202,  203,  204,  205,  206,  207,  208
 209,  210,  211,  212,  213,  214,  215,  216,  217,  218,  219,  220,  221,  222,  223,  224
 225,  226,  227,  228,  229,  230,  231,  232,  233,  234,  235,  236,  237,  238,  239,  240
 241,  242,  243,  244,  245,  246,  247,  248,  249,  250,  251,  252,  253,  254,  255,  256
 257,  258,  259,  260,  261,  262,  263,  264,  265,  266,  267,  268,  269,  270,  271,  272
 273,  274,  275,  276,  277,  278,  279,  280,  281,  282,  283,  284,  285,  286,  287,  288
 289,  290,  291,  292,  293,  294,  295,  296,  297,  298,  299,  300,  301,  302,  303,  304
 305,  306,  307,  308,  309,  310,  311,  312,  313,  314,  315,  316,  317,  318,  319,  320
 321,  322,  323,  324,  325,  326,  327,  328,  329,  330,  331,  332,  333,  334,  335,  336
 337,  338,  339,  340,  341,  342,  343,  344,  345,  346,  347,  348,  349,  350,  351,  352
 353,  354,  355,  356,  357,  358,  359,  360,  361,  362,  363,  364,  365,  366,  367,  368
 369,  370,  371,  372,  373,  374,  375,  376,  377,  378,  379,  380,  381,  382,  383,  384
 385,  386,  387,  388,  389,  390,  391,  392,  393,  394,  395,  396,  397,  398,  399,  400
 401,  402,  403,  404,  405,  406,  407,  408,  409,  410,  411,  412,  413,  414,  415,  416
 417,  418,  419,  420,  421,  422,  423,  424,  425,  426,  427,  428,  429,  430,  431,  432
 433,  434,  435,  436,  437,  438,  439,  440,  441,  442,  443,  444,  445,  446,  447,  448
 449,  450,  451,  452,  453,  454,  455,  456,  457,  458,  459,  460,  461,  462,  463,  464
 465,  466,  467,  468,  469,  470,  471,  472,  473,  474,  475,  476,  477,  478,  479,  480
 481,  482,  483,  484,  485,  486,  487,  488,  489,  490,  491,  492,  493,  494,  495,  496
 497,  498,  499,  500,  501,  502,  503,  504,  505,  506,  507,  508,  509,  510,  511,  512
 513,  514,  515,  516,  517,  518,  519,  520,  521,  522,  523,  524,  525,  526,  527,  528
 529,  530,  531,  532,  533,  534,  535,  536,  537,  538,  539,  540,  541,  542,  543,  544
 545,  546,  547,  548,  549,  550,  551,  552,  553,  554,  555,  556,  557,  558,  559,  560
 561,  562,  563,  564,  565,  566,  567,  568,  569,  570,  571,  572,  573,  574,  575,  576
 577,  578,  579,  580,  581,  582,  583,  584,  585,  586,  587,  588,  589,  590,  591,  592
 593,  594,  595,  596,  597,  598,  599,  600,  601,  602,  603,  604,  605,  606,  607,  608
 609,  610,  611,  612,  613,  614,  615,  616,  617,  618,  619,  620,  621,  622,  623,  624
 625,  626,  627,  628,  629,  630,  631,  632,  633,  634,  635,  636,  637,  638,  639,  640
 641,  642,  643,  644,  645,  646,  647,  648,  649,  650,  651,  652,  653,  654,  655,  656
 657,  658,  659,  660,  661,  662,  663,  664,  665,  666,  667,  668,  669,  670,  671,  672
 673,  674,  675,  676,  677,  678,  679,  680,  681,  682,  683,  684,  685,  686,  687,  688
 689,  690,  691,  692,  693,  694,  695,  696,  697,  698,  699,  700,  701,  702,  703,  704
 705,  706,  707,  708,  709,  710,  711,  712,  713,  714,  715,  716,  717,  718,  719,  720
 721,  722,  723,  724,  725,  726,  727,  728,  729,  730,  731,  732,  733,  734,  735,  736
 737,  738,  739,  740,  741,  742,  743,  744,  745,  746,  747,  748,  749,  750,  751,  752
 753,  754,  755,  756,  757,  758,  759,  760,  761,  762,  763,  764,  765,  766,  767,  768
 769,  770,  771,  772,  773,  774,  775,  776,  777,  778,  779,  780,  781,  782,  783,  784
 785,  786,  787,  788,  789,  790,  791,  792,  793,  794,  795,  796,  797,  798,  799,  800
 801,  802,  803,  804,  805,  806,  807,  808,  809,  810,  811,  812,  813,  814,  815,  816
 817,  818,  819,  820,  821,  822,  823,  824,  825,  826,  827,  828,  829,  830,  831,  832
 833,  834,  835,  836,  837,  838,  839,  840,  841,  842,  843,  844,  845,  846,  847,  848
 849,  850,  851,  852,  853,  854,  855,  856,  857,  858,  859,  860,  861,  862,  863,  864
 865,  866,  867,  868,  869,  870,  871,  872,  873,  874,  875,  876,  877,  878,  879,  880
 881,  882,  883,  884,  885,  886,  887,  888,  889,  890,  891,  892,  893,  894,  895,  896
 897,  898,  899,  900,  901,  902,  903,  904,  905,  906,  907,  908,  909,  910,  911,  912
 913,  914,  915,  916,  917,  918,  919,  920,  921,  922,  923,  924,  925,  926,  927,  928
 929,  930,  931,  932,  933,  934,  935,  936,  937,  938,  939,  940,  941,  942,  943,  944
 945,  946,  947,  948,  949,  950,  951,  952,  953,  954,  955,  956,  957,  958,  959,  960
 961,  962,  963,  964,  965,  966,  967,  968,  969,  970,  971,  972,  973,  974,  975,  976
 977,  978,  979,  980,  981,  982,  983,  984,  985,  986,  987,  988,  989,  990,  991,  992
 993,  994,  995,  996,  997,  998,  999, 1000, 1001, 1002, 1003, 1004, 1005, 1006, 1007, 1008
1009, 1010, 1011, 1012, 1013, 1014, 1015, 1016, 1017, 1018, 1019, 1020, 1021, 1022, 1023, 1024
1025, 1026, 1027, 1028, 1029, 1030, 1031, 1032, 1033, 1034, 1035, 1036, 1037, 1038, 1039, 1040
1041, 1042, 1043, 1044, 1045, 1046, 1047, 1048, 1049, 1050, 1051, 1052, 1053, 1054, 1055, 1056
1057, 1058, 1059, 1060, 1061, 1062, 1063, 1064, 1065, 1066, 1067, 1068, 1069, 1070, 1071, 1072
1073, 1074, 1075, 1076, 1077, 1078, 1079, 1080, 1081, 1082, 1083, 1084, 1085, 1086, 1087, 1088
1089, 1090, 1091, 1092, 1093, 1094, 1095, 1096, 1097, 1098, 1099, 1100, 1101, 1102, 1103, 1104
1105, 1106, 1107, 1108, 1109, 1110, 1111, 1112, 1113, 1114, 1115, 1116, 1117, 1118, 1119, 1120
1121, 1122, 1123, 1124, 1125, 1126, 1127, 1128, 1129, 1130, 1131, 1132, 1133, 1134, 1135, 1136
1137, 1138, 1139, 1140, 1141, 1142, 1143, 1144, 1145, 1146, 1147, 1148, 1149, 1150, 1151, 1152
1153, 1154, 1155, 1156, 1157, 1158, 1159, 1160, 1161, 1162, 1163, 1164, 1165, 1166, 1167, 1168
1169, 1170, 1171, 1172, 1173, 1174, 1175, 1176, 1177, 1178, 1179, 1180, 1181, 1182, 1183, 1184
1185, 1186, 1187, 1188, 1189, 1190, 1191, 1192, 1193, 1194, 1195, 1196, 1197, 1198, 1199, 1200
1201, 1202, 1203, 1204, 1205, 1206, 1207, 1208, 1209, 1210, 1211, 1212, 1213, 1214, 1215, 1216
1217, 1218, 1219, 1220, 1221, 1222, 1223, 1224, 1225, 1226, 1227, 1228, 1229, 1230, 1231, 1232
1233, 1234, 1235, 1236, 1237, 1238, 1239, 1240, 1241, 1242, 1243, 1244, 1245, 1246, 1247, 1248
1249, 1250, 1251, 1252, 1253, 1254, 1255, 1256, 1257, 1258, 1259, 1260, 1261, 1262, 1263, 1264
1265, 1266, 1267, 1268, 1269, 1270, 1271, 1272, 1273, 1274, 1275, 1276, 1277, 1278, 1279, 1280
1281, 1282, 1283, 1284, 1285, 1286, 1287, 1288, 1289, 1290, 1291, 1292, 1293, 1294, 1295, 1296
1297, 1298, 1299, 1300, 1301, 1302, 1303, 1304, 1305, 1306, 1307, 1308, 1309, 1310, 1311, 1312
1313, 1314, 1315, 1316, 1317, 1318, 1319, 1320, 1321, 1322, 1323, 1324, 1325, 1326, 1327, 1328
1329, 1330, 1331, 1332, 1333, 1334, 1335, 1336, 1337, 1338, 1339, 1340, 1341, 1342, 1343, 1344
1345, 1346, 1347, 1348, 1349, 1350, 1351, 1352, 1353, 1354, 1355, 1356, 1357, 1358, 1359, 1360
1361, 1362, 1363, 1364, 1365, 1366, 1367, 1368, 1369, 1370, 1371, 1372, 1373, 1374, 1375, 1376
1377, 1378, 1379, 1380, 1381, 1382, 1383, 1384, 1385, 1386, 1387, 1388, 1389, 1390, 1391, 1392
1393, 1394, 1395, 1396, 1397, 1398, 1399, 1400, 1401, 1402, 1403, 1404, 1405, 1406, 1407, 1408
1409, 1410, 1411, 1412, 1413, 1414, 1415, 1416, 1417, 1418, 1419, 1420, 1421, 1422, 1423, 1424
1425, 1426, 1427, 1428, 1429, 1430, 1431, 1432, 1433, 1434, 1435, 1436, 1437, 1438, 1439, 1440
1441, 1442, 1443, 1444, 1445, 1446, 1447, 1448, 1449, 1450, 1451, 1452, 1453, 1454, 1455, 1456
1457, 1458, 1459, 1460, 1461, 1462, 1463, 1464, 1465, 1466, 1467, 1468, 1469, 1470, 1471, 1472
1473, 1474, 1475, 1476, 1477, 1478, 1479, 1480, 1481, 1482, 1483, 1484, 1485, 1486, 1487, 1488
1489, 1490, 1491, 1492, 1493, 1494, 1495, 1496, 1497, 1498, 1499, 1500, 1501, 1502, 1503, 1504
1505, 1506, 1507, 1508, 1509, 1510, 1511, 1512, 1513, 1514, 1515, 1516, 1517, 1518, 1519, 1520
1521, 1522, 1523, 1524, 1525, 1526, 1527, 1528, 1529, 1530, 1531, 1532, 1533, 1534, 1535, 1536
1537, 1538, 1539, 1540, 1541, 1542, 1543, 1544, 1545, 1546, 1547, 1548, 1549, 1550, 1551, 1552
1553, 1554, 1555, 1556, 1557, 1558, 1559, 1560, 1561, 1562, 1563, 1564, 1565, 1566, 1567, 1568
1569, 1570, 1571, 1572, 1573, 1574, 1575, 1576, 1577, 1578, 1579, 1580, 1581, 1582, 1583, 1584
1585, 1586, 1587, 1588, 1589, 1590, 1591, 1592, 1593, 1594, 1595, 1596, 1597, 1598, 1599, 1600
1601, 1602, 1603, 1604, 1605, 1606, 1607, 1608, 1609, 1610, 1611, 1612, 1613, 1614, 1615, 1616
1617, 1618, 1619, 1620, 1621, 1622, 1623, 1624, 1625, 1626, 1627, 1628, 1629, 1630, 1631, 1632
1633, 1634, 1635, 1636, 1637, 1638, 1639, 1640, 1641, 1642, 1643, 1644, 1645, 1646, 1647, 1648
1649, 1650, 1651, 1652, 1653, 1654, 1655, 1656, 1657, 1658, 1659, 1660, 1661, 1662, 1663, 1664
1665, 1666, 1667, 1668, 1669, 1670, 1671, 1672, 1673, 1674, 1675, 1676, 1677, 1678, 1679, 1680
1681, 1682, 1683, 1684, 1685, 1686, 1687, 1688, 1689, 1690, 1691, 1692, 1693, 1694, 1695, 1696
1697, 1698, 1699, 1700, 1701, 1702, 1703, 1704, 1705, 1706, 1707, 1708, 1709, 1710, 1711, 1712
1713, 1714, 1715, 1716, 1717, 1718, 1719, 1720, 1721, 1722, 1723, 1724, 1725, 1726, 1727, 1728
1729, 1730, 1731, 1732, 1733, 1734, 1735, 1736, 1737, 1738, 1739, 1740, 1741, 1742, 1743, 1744
1745, 1746, 1747, 1748, 1749, 1750, 1751, 1752, 1753, 1754, 1755, 1756, 1757, 1758, 1759, 1760
1761, 1762, 1763, 1764, 1765, 1766, 1767, 1768, 1769, 1770, 1771, 1772, 1773, 1774, 1775, 1776
1777, 1778, 1779, 1780, 1781, 1782, 1783, 1784, 1785, 1786, 1787, 1788, 1789, 1790, 1791, 1792
1793, 1794, 1795, 1796, 1797, 1798, 1799, 1800, 1801, 1802, 1803, 1804, 1805, 1806, 1807, 1808
1809, 1810, 1811, 1812, 1813, 1814, 1815, 1816, 1817, 1818, 1819, 1820, 1821, 1822, 1823, 1824
1825, 1826, 1827, 1828, 1829, 1830, 1831, 1832, 1833, 1834, 1835, 1836, 1837, 1838, 1839, 1840
1841, 1842, 1843, 1844, 1845, 1846, 1847, 1848, 1849, 1850, 1851, 1852, 1853, 1854, 1855, 1856
1857, 1858, 1859, 1860, 1861, 1862, 1863, 1864, 1865, 1866, 1867, 1868, 1869, 1870, 1871, 1872
1873, 1874, 1875, 1876, 1877, 1878, 1879, 1880, 1881, 1882, 1883, 1884, 1885, 1886, 1887, 1888
1889, 1890, 1891, 1892, 1893, 1894, 1895, 1896, 1897, 1898, 1899, 1900, 1901, 1902, 1903, 1904
1905, 1906, 1907, 1908, 1909, 1910, 1911, 1912, 1913, 1914, 1915, 1916, 1917, 1918, 1919, 1920
1921, 1922, 1923, 1924, 1925, 1926, 1927, 1928, 1929, 1930, 1931, 1932, 1933, 1934, 1935, 1936
1937, 1938, 1939, 1940, 1941, 1942, 1943, 1944, 1945, 1946, 1947, 1948, 1949, 1950, 1951, 1952
1953, 1954, 1955, 1956, 1957, 1958, 1959, 1960, 1961, 1962, 1963, 1964, 1965, 1966, 1967, 1968
1969, 1970, 1971, 1972, 1973, 1974, 1975, 1976, 1977, 1978, 1979, 1980, 1981, 1982, 1983, 1984
1985, 1986, 1987, 1988, 1989, 1990, 1991, 1992, 1993, 1994, 1995, 1996, 1997, 1998, 1999, 2000

** Section: I-ShapeGirders_S355  Profile: I-ShapeGirders_S355
*Beam General Section, elset=set0, material=S355, section=I
200.0, 1200.0, 500.0, 500.0, 25.0, 25.0, 16.0
0.0, 1.0, 0.0

*ELSET, ELSET=set1
2001, 2002, 2003, 2004, 2005, 2006, 2007, 2008, 2009, 2010, 2011, 2012, 2013, 2014, 2015, 2016
2017, 2018, 2019, 2020, 2021, 2022, 2023, 2024, 2025, 2026, 2027, 2028, 2029, 2030, 2031, 2032
2033, 2034, 2035, 2036, 2037, 2038, 2039, 2040, 2041, 2042, 2043, 2044, 2045, 2046, 2047, 2048
2049, 2050, 2051, 2052, 2053, 2054, 2055, 2056, 2057, 2058, 2059, 2060, 2061, 2062, 2063, 2064
2065, 2066, 2067, 2068, 2069, 2070, 2071, 2072, 2073, 2074, 2075, 2076, 2077, 2078, 2079, 2080
2081, 2082, 2083, 2084, 2085, 2086, 2087, 2088, 2089, 2090, 2091, 2092, 2093, 2094, 2095, 2096
2097, 2098, 2099, 2100, 2101, 2102, 2103, 2104, 2105, 2106, 2107, 2108, 2109, 2110, 2111, 2112
2113, 2114, 2115, 2116, 2117, 2118, 2119, 2120, 2121, 2122, 2123, 2124, 2125, 2126, 2127, 2128
2129, 2130, 2131, 2132, 2133, 2134, 2135, 2136, 2137, 2138, 2139, 2140, 2141, 2142, 2143, 2144
2145, 2146, 2147, 2148, 2149, 2150, 2151, 2152, 2153, 2154, 2155, 2156, 2157, 2158, 2159, 2160
2161, 2162, 2163, 2164, 2165, 2166, 2167, 2168, 2169, 2170, 2171, 2172, 2173, 2174, 2175, 2176
2177, 2178, 2179, 2180, 2181, 2182, 2183, 2184, 2185, 2186, 2187, 2188, 2189, 2190, 2191, 2192
2193, 2194, 2195, 2196, 2197, 2198, 2199, 2200, 2201, 2202, 2203, 2204, 2205, 2206, 2207, 2208
2209, 2210, 2211, 2212, 2213, 2214, 2215, 2216, 2217, 2218, 2219, 2220, 2221, 2222, 2223, 2224
2225, 2226, 2227, 2228, 2229, 2230, 2231, 2232, 2233, 2234, 2235, 2236, 2237, 2238, 2239, 2240
2241, 2242, 2243, 2244, 2245, 2246, 2247, 2248, 2249, 2250, 2251, 2252, 2253, 2254, 2255, 2256
2257, 2258, 2259, 2260, 2261, 2262, 2263, 2264, 2265, 2266, 2267, 2268, 2269, 2270, 2271, 2272
2273, 2274, 2275, 2276, 2277, 2278, 2279, 2280, 2281, 2282, 2283, 2284, 2285, 2286, 2287, 2288
2289, 2290, 2291, 2292, 2293, 2294, 2295, 2296, 2297, 2298, 2299, 2300, 2301, 2302, 2303, 2304
2305, 2306, 2307, 2308, 2309, 2310, 2311, 2312, 2313, 2314, 2315, 2316, 2317, 2318, 2319, 2320
2321, 2322, 2323, 2324, 2325, 2326, 2327, 2328, 2329, 2330, 2331, 2332, 2333, 2334, 2335, 2336
2337, 2338, 2339, 2340, 2341, 2342, 2343, 2344, 2345, 2346, 2347, 2348, 2349, 2350, 2351, 2352
2353, 2354, 2355, 2356, 2357, 2358, 2359, 2360, 2361, 2362, 2363, 2364, 2365, 2366, 2367, 2368
2369, 2370, 2371, 2372, 2373, 2374, 2375, 2376, 2377, 2378, 2379, 2380, 2381, 2382, 2383, 2384
2385, 2386, 2387, 2388, 2389, 2390, 2391, 2392, 2393, 2394, 2395, 2396, 2397, 2398, 2399, 2400
2401, 2402, 2403, 2404, 2405, 2406, 2407, 2408, 2409, 2410, 2411, 2412, 2413, 2414, 2415, 2416
2417, 2418, 2419, 2420, 2421, 2422, 2423, 2424, 2425, 2426, 2427, 2428, 2429, 2430, 2431, 2432
2433, 2434, 2435, 2436, 2437, 2438, 2439, 2440, 2441, 2442, 2443, 2444, 2445, 2446, 2447, 2448
2449, 2450, 2451, 2452, 2453, 2454, 2455, 2456, 2457, 2458, 2459, 2460, 2461, 2462, 2463, 2464
2465, 2466, 2467, 2468, 2469, 2470, 2471, 2472, 2473, 2474, 2475, 2476, 2477, 2478, 2479, 2480
2481, 2482, 2483, 2484, 2485, 2486, 2487, 2488, 2489, 2490, 2491, 2492, 2493, 2494, 2495, 2496
2497, 2498, 2499, 2500, 2501, 2502, 2503, 2504, 2505, 2506, 2507, 2508, 2509, 2510, 2511, 2512
2513, 2514, 2515, 2516, 2517, 2518, 2519, 2520, 2521, 2522, 2523, 2524, 2525, 2526, 2527, 2528
2529, 2530, 2531, 2532, 2533, 2534, 2535, 2536, 2537, 2538, 2539, 2540, 2541, 2542, 2543, 2544
2545, 2546, 2547, 2548, 2549, 2550, 2551, 2552, 2553, 2554, 2555, 2556, 2557, 2558, 2559, 2560
2561, 2562, 2563, 2564, 2565, 2566, 2567, 2568, 2569, 2570, 2571, 2572, 2573, 2574, 2575, 2576
2577, 2578, 2579, 2580, 2581, 2582, 2583, 2584, 2585, 2586, 2587, 2588, 2589, 2590, 2591, 2592
2593, 2594, 2595, 2596, 2597, 2598, 2599, 2600, 2601, 2602, 2603, 2604, 2605, 2606, 2607, 2608
2609, 2610, 2611, 2612, 2613, 2614, 2615, 2616, 2617, 2618, 2619, 2620, 2621, 2622, 2623, 2624
2625, 2626, 2627, 2628, 2629, 2630, 2631, 2632, 2633, 2634, 2635, 2636, 2637, 2638, 2639, 2640
2641, 2642, 2643, 2644, 2645, 2646, 2647, 2648, 2649, 2650, 2651, 2652, 2653, 2654, 2655, 2656
2657, 2658, 2659, 2660, 2661, 2662, 2663, 2664, 2665, 2666, 2667, 2668, 2669, 2670, 2671, 2672
2673, 2674, 2675, 2676, 2677, 2678, 2679, 2680, 2681, 2682, 2683, 2684, 2685, 2686, 2687, 2688
2689, 2690, 2691, 2692, 2693, 2694, 2695, 2696, 2697, 2698, 2699, 2700, 2701, 2702, 2703, 2704
2705, 2706, 2707, 2708, 2709, 2710, 2711, 2712, 2713, 2714, 2715, 2716, 2717, 2718, 2719, 2720
2721, 2722, 2723, 2724, 2725, 2726, 2727, 2728, 2729, 2730, 2731, 2732, 2733, 2734, 2735, 2736
2737, 2738, 2739, 2740, 2741, 2742, 2743, 2744, 2745, 2746, 2747, 2748, 2749, 2750, 2751, 2752
2753, 2754, 2755, 2756, 2757, 2758, 2759, 2760, 2761, 2762, 2763, 2764, 2765, 2766, 2767, 2768
2769, 2770, 2771, 2772, 2773, 2774, 2775, 2776, 2777, 2778, 2779, 2780, 2781, 2782, 2783, 2784
2785, 2786, 2787, 2788, 2789, 2790, 2791, 2792, 2793, 2794, 2795, 2796, 2797, 2798, 2799, 2800
2801, 2802, 2803, 2804, 2805, 2806, 2807, 2808, 2809, 2810, 2811, 2812, 2813, 2814, 2815, 2816
2817, 2818, 2819, 2820, 2821, 2822, 2823, 2824, 2825, 2826, 2827, 2828, 2829, 2830, 2831, 2832
2833, 2834, 2835, 2836, 2837, 2838, 2839, 2840, 2841, 2842, 2843, 2844, 2845, 2846, 2847, 2848
2849, 2850, 2851, 2852, 2853, 2854, 2855, 2856, 2857, 2858, 2859, 2860, 2861, 2862, 2863, 2864
2865, 2866, 2867, 2868, 2869, 2870, 2871, 2872, 2873, 2874, 2875, 2876, 2877, 2878, 2879, 2880
2881, 2882, 2883, 2884, 2885, 2886, 2887, 2888, 2889, 2890, 2891, 2892, 2893, 2894, 2895, 2896
2897, 2898, 2899, 2900, 2901, 2902, 2903, 2904, 2905, 2906, 2907, 2908, 2909, 2910, 2911, 2912
2913, 2914, 2915, 2916, 2917, 2918, 2919, 2920, 2921, 2922, 2923, 2924, 2925, 2926, 2927, 2928
2929, 2930, 2931, 2932, 2933, 2934, 2935, 2936, 2937, 2938, 2939, 2940, 2941, 2942, 2943, 2944
2945, 2946, 2947, 2948, 2949, 2950, 2951, 2952, 2953, 2954, 2955, 2956, 2957, 2958, 2959, 2960
2961, 2962, 2963, 2964, 2965, 2966, 2967, 2968, 2969, 2970, 2971, 2972, 2973, 2974, 2975, 2976
2977, 2978, 2979, 2980, 2981, 2982, 2983, 2984, 2985, 2986, 2987, 2988, 2989, 2990, 2991, 2992
2993, 2994, 2995, 2996, 2997, 2998, 2999, 3000, 3001, 3002, 3003, 3004, 3005, 3006, 3007, 3008
3009, 3010, 3011, 3012, 3013, 3014, 3015, 3016, 3017, 3018, 3019, 3020, 3021, 3022, 3023, 3024
3025, 3026, 3027, 3028, 3029, 3030, 3031, 3032, 3033, 3034, 3035, 3036, 3037, 3038, 3039, 3040
3041, 3042, 3043, 3044, 3045, 3046, 3047, 3048, 3049, 3050, 3051, 3052, 3053, 3054, 3055, 3056
3057, 3058, 3059, 3060, 3061, 3062, 3063, 3064, 3065, 3066, 3067, 3068, 3069, 3070, 3071, 3072
3073, 3074, 3075, 3076, 3077, 3078, 3079, 3080, 3081, 3082, 3083, 3084, 3085, 3086, 3087, 3088
3089, 3090, 3091, 3092, 3093, 3094, 3095, 3096, 3097, 3098, 3099, 3100, 3101, 3102, 3103, 3104
3105, 3106, 3107, 3108, 3109, 3110, 3111, 3112, 3113, 3114, 3115, 3116, 3117, 3118, 3119, 3120
3121, 3122, 3123, 3124, 3125, 3126, 3127, 3128, 3129, 3130, 3131, 3132, 3133, 3134, 3135, 3136
3137, 3138, 3139, 3140, 3141, 3142, 3143, 3144, 3145, 3146, 3147, 3148, 3149, 3150, 3151, 3152
3153, 3154, 3155, 3156, 3157, 3158, 3159, 3160, 3161, 3162, 3163, 3164, 3165, 3166, 3167, 3168
3169, 3170, 3171, 3172, 3173, 3174, 3175, 3176, 3177, 3178, 3179, 3180, 3181, 3182, 3183, 3184
3185, 3186, 3187, 3188, 3189, 3190, 3191, 3192, 3193, 3194, 3195, 3196, 3197, 3198, 3199, 3200
3201, 3202, 3203, 3204, 3205, 3206, 3207, 3208, 3209, 3210, 3211, 3212, 3213, 3214, 3215, 3216
3217, 3218, 3219, 3220, 3221, 3222, 3223, 3224, 3225, 3226, 3227, 3228, 3229, 3230, 3231, 3232
3233, 3234, 3235, 3236, 3237, 3238, 3239, 3240, 3241, 3242, 3243, 3244, 3245, 3246, 3247, 3248
3249, 3250, 3251, 3252, 3253, 3254, 3255, 3256, 3257, 3258, 3259, 3260, 3261, 3262, 3263, 3264
3265, 3266, 3267, 3268, 3269, 3270, 3271, 3272, 3273, 3274, 3275, 3276, 3277, 3278, 3279, 3280
3281, 3282, 3283, 3284, 3285, 3286, 3287, 3288, 3289, 3290, 3291, 3292, 3293, 3294, 3295, 3296
3297, 3298, 3299, 3300, 3301, 3302, 3303, 3304, 3305, 3306, 3307, 3308, 3309, 3310, 3311, 3312
3313, 3314, 3315, 3316, 3317, 3318, 3319, 3320, 3321, 3322, 3323, 3324, 3325, 3326, 3327, 3328
3329, 3330, 3331, 3332, 3333, 3334, 3335, 3336, 3337, 3338, 3339, 3340, 3341, 3342, 3343, 3344
3345, 3346, 3347, 3348, 3349, 3350, 3351, 3352, 3353, 3354, 3355, 3356, 3357, 3358, 3359, 3360
3361, 3362, 3363, 3364, 3365, 3366, 3367, 3368, 3369, 3370, 3371, 3372, 3373, 3374, 3375, 3376
3377, 3378, 3379, 3380, 3381, 3382, 3383, 3384, 3385, 3386, 3387, 3388, 3389, 3390, 3391, 3392
3393, 3394, 3395, 3396, 3397, 3398, 3399, 3400, 3401, 3402, 3403, 3404, 3405, 3406, 3407, 3408
3409, 3410, 3411, 3412, 3413, 3414, 3415, 3416, 3417, 3418, 3419, 3420, 3421, 3422, 3423, 3424
3425, 3426, 3427, 3428, 3429, 3430, 3431, 3432, 3433, 3434, 3435, 3436, 3437, 3438, 3439, 3440
3441, 3442, 3443, 3444, 3445, 3446, 3447, 3448, 3449, 3450, 3451, 3452, 3453, 3454, 3455, 3456
3457, 3458, 3459, 3460, 3461, 3462, 3463, 3464, 3465, 3466, 3467, 3468, 3469, 3470, 3471, 3472
3473, 3474, 3475, 3476, 3477, 3478, 3479, 3480, 3481, 3482, 3483, 3484, 3485, 3486, 3487, 3488
3489, 3490, 3491, 3492, 3493, 3494, 3495, 3496, 3497, 3498, 3499, 3500, 3501, 3502, 3503, 3504
3505, 3506, 3507, 3508, 3509, 3510, 3511, 3512, 3513, 3514, 3515, 3516, 3517, 3518, 3519, 3520
3521, 3522, 3523, 3524, 3525, 3526, 3527, 3528, 3529, 3530, 3531, 3532, 3533, 3534, 3535, 3536
3537, 3538, 3539, 3540, 3541, 3542, 3543, 3544, 3545, 3546, 3547, 3548, 3549, 3550, 3551, 3552
3553, 3554, 3555, 3556, 3557, 3558, 3559, 3560, 3561, 3562, 3563, 3564, 3565, 3566, 3567, 3568
3569, 3570, 3571, 3572, 3573, 3574, 3575, 3576, 3577, 3578, 3579, 3580, 3581, 3582, 3583, 3584
3585, 3586, 3587, 3588, 3589, 3590, 3591, 3592, 3593, 3594, 3595, 3596, 3597, 3598, 3599, 3600
3601, 3602, 3603, 3604, 3605, 3606, 3607, 3608, 3609, 3610, 3611, 3612, 3613, 3614, 3615, 3616
3617, 3618, 3619, 3620, 3621, 3622, 3623, 3624, 3625, 3626, 3627, 3628, 3629, 3630, 3631, 3632
3633, 3634, 3635, 3636, 3637, 3638, 3639, 3640, 3641, 3642, 3643, 3644, 3645, 3646, 3647, 3648
3649, 3650, 3651, 3652, 3653, 3654, 3655, 3656, 3657, 3658, 3659, 3660, 3661, 3662, 3663, 3664
3665, 3666, 3667, 3668, 3669, 3670, 3671, 3672, 3673, 3674, 3675, 3676, 3677, 3678, 3679, 3680
3681, 3682, 3683, 3684, 3685, 3686, 3687, 3688, 3689, 3690, 3691, 3692, 3693, 3694, 3695, 3696
3697, 3698, 3699, 3700, 3701, 3702, 3703, 3704, 3705, 3706, 3707, 3708, 3709, 3710, 3711, 3712
3713, 3714, 3715, 3716, 3717, 3718, 3719, 3720, 3721, 3722, 3723, 3724, 3725, 3726, 3727, 3728
3729, 3730, 3731, 3732, 3733, 3734, 3735, 3736, 3737, 3738, 3739, 3740, 3741, 3742, 3743, 3744
3745, 3746, 3747, 3748, 3749, 3750, 3751, 3752, 3753, 3754, 3755, 3756, 3757, 3758, 3759, 3760
3761, 3762, 3763, 3764, 3765, 3766, 3767, 3768, 3769, 3770, 3771, 3772, 3773, 3774, 3775, 3776
3777, 3778, 3779, 3780, 3781, 3782, 3783, 3784, 3785, 3786, 3787, 3788, 3789, 3790, 3791, 3792
3793, 3794, 3795, 3796, 3797, 3798, 3799, 3800, 3801, 3802, 3803, 3804, 3805, 3806, 3807, 3808
3809, 3810, 3811, 3812, 3813, 3814, 3815, 3816, 3817, 3818, 3819, 3820, 3821, 3822, 3823, 3824
3825, 3826, 3827, 3828, 3829, 3830, 3831, 3832, 3833, 3834, 3835, 3836, 3837, 3838, 3839, 3840
3841, 3842, 3843, 3844, 3845, 3846, 3847, 3848, 3849, 3850, 3851, 3852, 3853, 3854, 3855, 3856
3857, 3858, 3859, 3860, 3861, 3862, 3863, 3864, 3865, 3866, 3867, 3868, 3869, 3870, 3871, 3872
3873, 3874, 3875, 3876, 3877, 3878, 3879, 3880, 3881, 3882, 3883, 3884, 3885, 3886, 3887, 3888
3889, 3890, 3891, 3892, 3893, 3894, 3895, 3896, 3897, 3898, 3899, 3900, 3901, 3902, 3903, 3904
3905, 3906, 3907, 3908, 3909, 3910, 3911, 3912, 3913, 3914, 3915, 3916, 3917, 3918, 3919, 3920
3921, 3922, 3923, 3924, 3925, 3926, 3927, 3928, 3929, 3930, 3931, 3932, 3933, 3934, 3935, 3936
3937, 3938, 3939, 3940, 3941, 3942, 3943, 3944, 3945, 3946, 3947, 3948, 3949, 3950, 3951, 3952
3953, 3954, 3955, 3956, 3957, 3958, 3959, 3960, 3961, 3962, 3963, 3964, 3965, 3966, 3967, 3968
3969, 3970, 3971, 3972, 3973, 3974, 3975, 3976, 3977, 3978, 3979, 3980, 3981, 3982, 3983, 3984
3985, 3986, 3987, 3988, 3989, 3990, 3991, 3992, 3993, 3994, 3995, 3996, 3997, 3998, 3999, 4000
4001, 4002, 4003, 4004, 4005

** Section: Rigid_Rigid  Profile: Rigid_Rigid
*Beam General Section, elset=set1, material=Rigid, section=RECT
100.0, 100.0
1.0, 0.0, 0.0

*ELSET, ELSET=set2
4006, 4007, 4008, 4009, 4010, 4011, 4012, 4013, 4014, 4015, 4016, 4017, 4018, 4019, 4020, 4021
4022, 4023, 4024, 4025, 4026, 4027, 4028, 4029, 4030, 4031, 4032, 4033, 4034, 4035, 4036, 4037
4038, 4039, 4040, 4041, 4042, 4043, 4044, 4045, 4046, 4047, 4048, 4049, 4050, 4051, 4052, 4053
4054, 4055, 4056, 4057, 4058, 4059, 4060, 4061, 4062, 4063, 4064, 4065, 4066, 4067, 4068, 4069
4070, 4071, 4072, 4073, 4074, 4075, 4076, 4077, 4078, 4079, 4080, 4081, 4082, 4083, 4084, 4085
4086, 4087, 4088, 4089, 4090, 4091, 4092, 4093, 4094, 4095, 4096, 4097, 4098, 4099, 4100, 4101
4102, 4103, 4104, 4105, 4106, 4107, 4108, 4109, 4110, 4111, 4112, 4113, 4114, 4115, 4116, 4117
4118, 4119, 4120, 4121, 4122, 4123, 4124, 4125, 4126, 4127, 4128, 4129, 4130, 4131, 4132, 4133
4134, 4135, 4136, 4137, 4138, 4139, 4140, 4141, 4142, 4143, 4144, 4145, 4146, 4147, 4148, 4149
4150, 4151, 4152, 4153, 4154, 4155, 4156, 4157, 4158, 4159, 4160, 4161, 4162, 4163, 4164, 4165
4166, 4167, 4168, 4169, 4170, 4171, 4172, 4173, 4174, 4175, 4176, 4177, 4178, 4179, 4180, 4181
4182, 4183, 4184, 4185, 4186, 4187, 4188, 4189, 4190, 4191, 4192, 4193, 4194, 4195, 4196, 4197
4198, 4199, 4200, 4201, 4202, 4203, 4204, 4205, 4206, 4207, 4208, 4209, 4210, 4211, 4212, 4213
4214, 4215, 4216, 4217, 4218, 4219, 4220, 4221, 4222, 4223, 4224, 4225, 4226, 4227, 4228, 4229
4230, 4231, 4232, 4233, 4234, 4235, 4236, 4237, 4238, 4239, 4240, 4241, 4242, 4243, 4244, 4245
4246, 4247, 4248, 4249, 4250, 4251, 4252, 4253, 4254, 4255, 4256, 4257, 4258, 4259, 4260, 4261
4262, 4263, 4264, 4265, 4266, 4267, 4268, 4269, 4270, 4271, 4272, 4273, 4274, 4275, 4276, 4277
4278, 4279, 4280, 4281, 4282, 4283, 4284, 4285, 4286, 4287, 4288, 4289, 4290, 4291, 4292, 4293
4294, 4295, 4296, 4297, 4298, 4299, 4300, 4301, 4302, 4303, 4304, 4305, 4306, 4307, 4308, 4309
4310, 4311, 4312, 4313, 4314, 4315, 4316, 4317, 4318, 4319, 4320, 4321, 4322, 4323, 4324, 4325
4326, 4327, 4328, 4329, 4330, 4331, 4332, 4333, 4334, 4335, 4336, 4337, 4338, 4339, 4340, 4341
4342, 4343, 4344, 4345, 4346, 4347, 4348, 4349, 4350, 4351, 4352, 4353, 4354, 4355, 4356, 4357
4358, 4359, 4360, 4361, 4362, 4363, 4364, 4365, 4366, 4367, 4368, 4369, 4370, 4371, 4372, 4373
4374, 4375, 4376, 4377, 4378, 4379, 4380, 4381, 4382, 4383, 4384, 4385, 4386, 4387, 4388, 4389
4390, 4391, 4392, 4393, 4394, 4395, 4396, 4397, 4398, 4399, 4400, 4401, 4402, 4403, 4404, 4405
4406, 4407, 4408, 4409, 4410, 4411, 4412, 4413, 4414, 4415, 4416, 4417, 4418, 4419, 4420, 4421
4422, 4423, 4424, 4425, 4426, 4427, 4428, 4429, 4430, 4431, 4432, 4433, 4434, 4435, 4436, 4437
4438, 4439, 4440, 4441, 4442, 4443, 4444, 4445, 4446, 4447, 4448, 4449, 4450, 4451, 4452, 4453
4454, 4455, 4456, 4457, 4458, 4459, 4460, 4461, 4462, 4463, 4464, 4465, 4466, 4467, 4468, 4469
4470, 4471, 4472, 4473, 4474, 4475, 4476, 4477, 4478, 4479, 4480, 4481, 4482, 4483, 4484, 4485
4486, 4487, 4488, 4489, 4490, 4491, 4492, 4493, 4494, 4495, 4496, 4497, 4498, 4499, 4500, 4501
4502, 4503, 4504, 4505, 4506, 4507, 4508, 4509, 4510, 4511, 4512, 4513, 4514, 4515, 4516, 4517
4518, 4519, 4520, 4521, 4522, 4523, 4524, 4525, 4526, 4527, 4528, 4529, 4530, 4531, 4532, 4533
4534, 4535, 4536, 4537, 4538, 4539, 4540, 4541, 4542, 4543, 4544, 4545, 4546, 4547, 4548, 4549
4550, 4551, 4552, 4553, 4554, 4555, 4556, 4557, 4558, 4559, 4560, 4561, 4562, 4563, 4564, 4565
4566, 4567, 4568, 4569, 4570, 4571, 4572, 4573, 4574, 4575, 4576, 4577, 4578, 4579, 4580, 4581
4582, 4583, 4584, 4585, 4586, 4587, 4588, 4589, 4590, 4591, 4592, 4593, 4594, 4595, 4596, 4597
4598, 4599, 4600, 4601, 4602, 4603, 4604, 4605, 4606, 4607, 4608, 4609, 4610, 4611, 4612, 4613
4614, 4615, 4616, 4617, 4618, 4619, 4620, 4621, 4622, 4623, 4624, 4625, 4626, 4627, 4628, 4629
4630, 4631, 4632, 4633, 4634, 4635, 4636, 4637, 4638, 4639, 4640, 4641, 4642, 4643, 4644, 4645
4646, 4647, 4648, 4649, 4650, 4651, 4652, 4653, 4654, 4655, 4656, 4657, 4658, 4659, 4660, 4661
4662, 4663, 4664, 4665, 4666, 4667, 4668, 4669, 4670, 4671, 4672, 4673, 4674, 4675, 4676, 4677
4678, 4679, 4680, 4681, 4682, 4683, 4684, 4685, 4686, 4687, 4688, 4689, 4690, 4691, 4692, 4693
4694, 4695, 4696, 4697, 4698, 4699, 4700, 4701, 4702, 4703, 4704, 4705, 4706, 4707, 4708, 4709
4710, 4711, 4712, 4713, 4714, 4715, 4716, 4717, 4718, 4719, 4720, 4721, 4722, 4723, 4724, 4725
4726, 4727, 4728, 4729, 4730, 4731, 4732, 4733, 4734, 4735, 4736, 4737, 4738, 4739, 4740, 4741
4742, 4743, 4744, 4745, 4746, 4747, 4748, 4749, 4750, 4751, 4752, 4753, 4754, 4755, 4756, 4757
4758, 4759, 4760, 4761, 4762, 4763, 4764, 4765, 4766, 4767, 4768, 4769, 4770, 4771, 4772, 4773
4774, 4775, 4776, 4777, 4778, 4779, 4780, 4781, 4782, 4783, 4784, 4785, 4786, 4787, 4788, 4789
4790, 4791, 4792, 4793, 4794, 4795, 4796, 4797, 4798, 4799, 4800, 4801, 4802, 4803, 4804, 4805
4806, 4807, 4808, 4809, 4810, 4811, 4812, 4813, 4814, 4815, 4816, 4817, 4818, 4819, 4820, 4821
4822, 4823, 4824, 4825, 4826, 4827, 4828, 4829, 4830, 4831, 4832, 4833, 4834, 4835, 4836, 4837
4838, 4839, 4840, 4841, 4842, 4843, 4844, 4845, 4846, 4847, 4848, 4849, 4850, 4851, 4852, 4853
4854, 4855, 4856, 4857, 4858, 4859, 4860, 4861, 4862, 4863, 4864, 4865, 4866, 4867, 4868, 4869
4870, 4871, 4872, 4873, 4874, 4875, 4876, 4877, 4878, 4879, 4880, 4881, 4882, 4883, 4884, 4885
4886, 4887, 4888, 4889, 4890, 4891, 4892, 4893, 4894, 4895, 4896, 4897, 4898, 4899, 4900, 4901
4902, 4903, 4904, 4905, 4906, 4907, 4908, 4909, 4910, 4911, 4912, 4913, 4914, 4915, 4916, 4917
4918, 4919, 4920, 4921, 4922, 4923, 4924, 4925, 4926, 4927, 4928, 4929, 4930, 4931, 4932, 4933
4934, 4935, 4936, 4937, 4938, 4939, 4940, 4941, 4942, 4943, 4944, 4945, 4946, 4947, 4948, 4949
4950, 4951, 4952, 4953, 4954, 4955, 4956, 4957, 4958, 4959, 4960, 4961, 4962, 4963, 4964, 4965
4966, 4967, 4968, 4969, 4970, 4971, 4972, 4973, 4974, 4975, 4976, 4977, 4978, 4979, 4980, 4981
4982, 4983, 4984, 4985, 4986, 4987, 4988, 4989, 4990, 4991, 4992, 4993, 4994, 4995, 4996, 4997
4998, 4999, 5000, 5001, 5002, 5003, 5004, 5005, 5006, 5007, 5008, 5009, 5010, 5011, 5012, 5013
5014, 5015, 5016, 5017, 5018, 5019, 5020, 5021, 5022, 5023, 5024, 5025, 5026, 5027, 5028, 5029
5030, 5031, 5032, 5033, 5034, 5035, 5036, 5037, 5038, 5039, 5040, 5041, 5042, 5043, 5044, 5045
5046, 5047, 5048, 5049, 5050, 5051, 5052, 5053, 5054, 5055, 5056, 5057, 5058, 5059, 5060, 5061
5062, 5063, 5064, 5065, 5066, 5067, 5068, 5069, 5070, 5071, 5072, 5073, 5074, 5075, 5076, 5077
5078, 5079, 5080, 5081, 5082, 5083, 5084, 5085, 5086, 5087, 5088, 5089, 5090, 5091, 5092, 5093
5094, 5095, 5096, 5097, 5098, 5099, 5100, 5101, 5102, 5103, 5104, 5105, 5106, 5107, 5108, 5109
5110, 5111, 5112, 5113, 5114, 5115, 5116, 5117, 5118, 5119, 5120, 5121, 5122, 5123, 5124, 5125
5126, 5127, 5128, 5129, 5130, 5131, 5132, 5133, 5134, 5135, 5136, 5137, 5138, 5139, 5140, 5141
5142, 5143, 5144, 5145, 5146, 5147, 5148, 5149, 5150, 5151, 5152, 5153, 5154, 5155, 5156, 5157
5158, 5159, 5160, 5161, 5162, 5163, 5164, 5165, 5166, 5167, 5168, 5169, 5170, 5171, 5172, 5173
5174, 5175, 5176, 5177, 5178, 5179, 5180, 5181, 5182, 5183, 5184, 5185, 5186, 5187, 5188, 5189
5190, 5191, 5192, 5193, 5194, 5195, 5196, 5197, 5198, 5199, 5200, 5201, 5202, 5203, 5204, 5205
5206, 5207, 5208, 5209, 5210, 5211, 5212, 5213, 5214, 5215, 5216, 5217, 5218, 5219, 5220, 5221
5222, 5223, 5224, 5225, 5226, 5227, 5228, 5229, 5230, 5231, 5232, 5233, 5234, 5235, 5236, 5237
5238, 5239, 5240, 5241, 5242, 5243, 5244, 5245, 5246, 5247, 5248, 5249, 5250, 5251, 5252, 5253
5254, 5255, 5256, 5257, 5258, 5259, 5260, 5261, 5262, 5263, 5264, 5265, 5266, 5267, 5268, 5269
5270, 5271, 5272, 5273, 5274, 5275, 5276, 5277, 5278, 5279, 5280, 5281, 5282, 5283, 5284, 5285
5286, 5287, 5288, 5289, 5290, 5291, 5292, 5293, 5294, 5295, 5296, 5297, 5298, 5299, 5300, 5301
5302, 5303, 5304, 5305, 5306, 5307, 5308, 5309, 5310, 5311, 5312, 5313, 5314, 5315, 5316, 5317
5318, 5319, 5320, 5321, 5322, 5323, 5324, 5325, 5326, 5327, 5328, 5329, 5330, 5331, 5332, 5333
5334, 5335, 5336, 5337, 5338, 5339, 5340, 5341, 5342, 5343, 5344, 5345, 5346, 5347, 5348, 5349
5350, 5351, 5352, 5353, 5354, 5355, 5356, 5357, 5358, 5359, 5360, 5361, 5362, 5363, 5364, 5365
5366, 5367, 5368, 5369, 5370, 5371, 5372, 5373, 5374, 5375, 5376, 5377, 5378, 5379, 5380, 5381
5382, 5383, 5384, 5385, 5386, 5387, 5388, 5389, 5390, 5391, 5392, 5393, 5394, 5395, 5396, 5397
5398, 5399, 5400, 5401, 5402, 5403, 5404, 5405, 5406, 5407, 5408, 5409, 5410, 5411, 5412, 5413
5414, 5415, 5416, 5417, 5418, 5419, 5420, 5421, 5422, 5423, 5424, 5425, 5426, 5427, 5428, 5429
5430, 5431, 5432, 5433, 5434, 5435, 5436, 5437, 5438, 5439, 5440, 5441, 5442, 5443, 5444, 5445
5446, 5447, 5448, 5449, 5450, 5451, 5452, 5453, 5454, 5455, 5456, 5457, 5458, 5459, 5460, 5461
5462, 5463, 5464, 5465, 5466, 5467, 5468, 5469, 5470, 5471, 5472, 5473, 5474, 5475, 5476, 5477
5478, 5479, 5480, 5481, 5482, 5483, 5484, 5485, 5486, 5487, 5488, 5489, 5490, 5491, 5492, 5493
5494, 5495, 5496, 5497, 5498, 5499, 5500, 5501, 5502, 5503, 5504, 5505, 5506, 5507, 5508, 5509
5510, 5511, 5512, 5513, 5514, 5515, 5516, 5517, 5518, 5519, 5520, 5521, 5522, 5523, 5524, 5525
5526, 5527, 5528, 5529, 5530, 5531, 5532, 5533, 5534, 5535, 5536, 5537, 5538, 5539, 5540, 5541
5542, 5543, 5544, 5545, 5546, 5547, 5548, 5549, 5550, 5551, 5552, 5553, 5554, 5555, 5556, 5557
5558, 5559, 5560, 5561, 5562, 5563, 5564, 5565, 5566, 5567, 5568, 5569, 5570, 5571, 5572, 5573
5574, 5575, 5576, 5577, 5578, 5579, 5580, 5581, 5582, 5583, 5584, 5585, 5586, 5587, 5588, 5589
5590, 5591, 5592, 5593, 5594, 5595, 5596, 5597, 5598, 5599, 5600, 5601, 5602, 5603, 5604, 5605
5606, 5607, 5608, 5609, 5610, 5611, 5612, 5613, 5614, 5615, 5616, 5617, 5618, 5619, 5620, 5621
5622, 5623, 5624, 5625, 5626, 5627, 5628, 5629, 5630, 5631, 5632, 5633, 5634, 5635, 5636, 5637
5638, 5639, 5640, 5641, 5642, 5643, 5644, 5645, 5646, 5647, 5648, 5649, 5650, 5651, 5652, 5653
5654, 5655, 5656, 5657, 5658, 5659, 5660, 5661, 5662, 5663, 5664, 5665, 5666, 5667, 5668, 5669
5670, 5671, 5672, 5673, 5674, 5675, 5676, 5677, 5678, 5679, 5680, 5681, 5682, 5683, 5684, 5685
5686, 5687, 5688, 5689, 5690, 5691, 5692, 5693, 5694, 5695, 5696, 5697, 5698, 5699, 5700, 5701
5702, 5703, 5704, 5705, 5706, 5707, 5708, 5709, 5710, 5711, 5712, 5713, 5714, 5715, 5716, 5717
5718, 5719, 5720, 5721, 5722, 5723, 5724, 5725, 5726, 5727, 5728, 5729, 5730, 5731, 5732, 5733
5734, 5735, 5736, 5737, 5738, 5739, 5740, 5741, 5742, 5743, 5744, 5745, 5746, 5747, 5748, 5749
5750, 5751, 5752, 5753, 5754, 5755, 5756, 5757, 5758, 5759, 5760, 5761, 5762, 5763, 5764, 5765
5766, 5767, 5768, 5769, 5770, 5771, 5772, 5773, 5774, 5775, 5776, 5777, 5778, 5779, 5780, 5781
5782, 5783, 5784, 5785, 5786, 5787, 5788, 5789, 5790, 5791, 5792, 5793, 5794, 5795, 5796, 5797
5798, 5799, 5800, 5801, 5802, 5803, 5804, 5805, 5806, 5807, 5808, 5809, 5810, 5811, 5812, 5813
5814, 5815, 5816, 5817, 5818, 5819, 5820, 5821, 5822, 5823, 5824, 5825, 5826, 5827, 5828, 5829
5830, 5831, 5832, 5833, 5834, 5835, 5836, 5837, 5838, 5839, 5840, 5841, 5842, 5843, 5844, 5845
5846, 5847, 5848, 5849, 5850, 5851, 5852, 5853, 5854, 5855, 5856, 5857, 5858, 5859, 5860, 5861
5862, 5863, 5864, 5865, 5866, 5867, 5868, 5869, 5870, 5871, 5872, 5873, 5874, 5875, 5876, 5877
5878, 5879, 5880, 5881, 5882, 5883, 5884, 5885, 5886, 5887, 5888, 5889, 5890, 5891, 5892, 5893
5894, 5895, 5896, 5897, 5898, 5899, 5900, 5901, 5902, 5903, 5904, 5905, 5906, 5907, 5908, 5909
5910, 5911, 5912, 5913, 5914, 5915, 5916, 5917, 5918, 5919, 5920, 5921, 5922, 5923, 5924, 5925
5926, 5927, 5928, 5929, 5930, 5931, 5932, 5933, 5934, 5935, 5936, 5937, 5938, 5939, 5940, 5941
5942, 5943, 5944, 5945, 5946, 5947, 5948, 5949, 5950, 5951, 5952, 5953, 5954, 5955, 5956, 5957
5958, 5959, 5960, 5961, 5962, 5963, 5964, 5965, 5966, 5967, 5968, 5969, 5970, 5971, 5972, 5973
5974, 5975, 5976, 5977, 5978, 5979, 5980, 5981, 5982, 5983, 5984, 5985, 5986, 5987, 5988, 5989
5990, 5991, 5992, 5993, 5994, 5995, 5996, 5997, 5998, 5999, 6000, 6001, 6002, 6003, 6004, 6005
6006, 6007, 6008, 6009, 6010, 6011, 6012, 6013, 6014, 6015, 6016, 6017, 6018, 6019, 6020, 6021
6022, 6023, 6024, 6025, 6026, 6027, 6028, 6029, 6030, 6031, 6032, 6033, 6034, 6035, 6036, 6037
6038, 6039, 6040, 6041, 6042, 6043, 6044, 6045, 6046, 6047, 6048, 6049, 6050, 6051, 6052, 6053
6054, 6055, 6056, 6057, 6058, 6059, 6060, 6061, 6062, 6063, 6064, 6065, 6066, 6067, 6068, 6069
6070, 6071, 6072, 6073, 6074, 6075, 6076, 6077, 6078, 6079, 6080, 6081, 6082, 6083, 6084, 6085
6086, 6087, 6088, 6089, 6090, 6091, 6092, 6093, 6094, 6095, 6096, 6097, 6098, 6099, 6100, 6101
6102, 6103, 6104, 6105, 6106, 6107, 6108, 6109, 6110, 6111, 6112, 6113, 6114, 6115, 6116, 6117
6118, 6119, 6120, 6121, 6122, 6123, 6124, 6125, 6126, 6127, 6128, 6129, 6130, 6131, 6132, 6133
6134, 6135, 6136, 6137, 6138, 6139, 6140, 6141, 6142, 6143, 6144, 6145, 6146, 6147, 6148, 6149
6150, 6151, 6152, 6153, 6154, 6155, 6156, 6157, 6158, 6159, 6160, 6161, 6162, 6163, 6164, 6165
6166, 6167, 6168, 6169, 6170, 6171, 6172, 6173, 6174, 6175, 6176, 6177, 6178, 6179, 6180, 6181
6182, 6183, 6184, 6185, 6186, 6187, 6188, 6189, 6190, 6191, 6192, 6193, 6194, 6195, 6196, 6197
6198, 6199, 6200, 6201, 6202, 6203, 6204, 6205, 6206, 6207, 6208, 6209, 6210, 6211, 6212, 6213
6214, 6215, 6216, 6217, 6218, 6219, 6220, 6221, 6222, 6223, 6224, 6225, 6226, 6227, 6228, 6229
6230, 6231, 6232, 6233, 6234, 6235, 6236, 6237, 6238, 6239, 6240, 6241, 6242, 6243, 6244, 6245
6246, 6247, 6248, 6249, 6250, 6251, 6252, 6253, 6254, 6255, 6256, 6257, 6258, 6259, 6260, 6261
6262, 6263, 6264, 6265, 6266, 6267, 6268, 6269, 6270, 6271, 6272, 6273, 6274, 6275, 6276, 6277
6278, 6279, 6280, 6281, 6282, 6283, 6284, 6285, 6286, 6287, 6288, 6289, 6290, 6291, 6292, 6293
6294, 6295, 6296, 6297, 6298, 6299, 6300, 6301, 6302, 6303, 6304, 6305, 6306, 6307, 6308, 6309
6310, 6311, 6312, 6313, 6314, 6315, 6316, 6317, 6318, 6319, 6320, 6321, 6322, 6323, 6324, 6325
6326, 6327, 6328, 6329, 6330, 6331, 6332, 6333, 6334, 6335, 6336, 6337, 6338, 6339, 6340, 6341
6342, 6343, 6344, 6345, 6346, 6347, 6348, 6349, 6350, 6351, 6352, 6353, 6354, 6355, 6356, 6357
6358, 6359, 6360, 6361, 6362, 6363, 6364, 6365, 6366, 6367, 6368, 6369, 6370, 6371, 6372, 6373
6374, 6375, 6376, 6377, 6378, 6379, 6380, 6381, 6382, 6383, 6384, 6385, 6386, 6387, 6388, 6389
6390, 6391, 6392, 6393, 6394, 6395, 6396, 6397, 6398, 6399, 6400, 6401, 6402, 6403, 6404, 6405
6406, 6407, 6408, 6409, 6410, 6411, 6412, 6413, 6414, 6415, 6416, 6417, 6418, 6419, 6420, 6421
6422, 6423, 6424, 6425, 6426, 6427, 6428, 6429, 6430, 6431, 6432, 6433, 6434, 6435, 6436, 6437
6438, 6439, 6440, 6441, 6442, 6443, 6444, 6445, 6446, 6447, 6448, 6449, 6450, 6451, 6452, 6453
6454, 6455, 6456, 6457, 6458, 6459, 6460, 6461, 6462, 6463, 6464, 6465, 6466, 6467, 6468, 6469
6470, 6471, 6472, 6473, 6474, 6475, 6476, 6477, 6478, 6479, 6480, 6481, 6482, 6483, 6484, 6485
6486, 6487, 6488, 6489, 6490, 6491, 6492, 6493, 6494, 6495, 6496, 6497, 6498, 6499, 6500, 6501
6502, 6503, 6504, 6505, 6506, 6507, 6508, 6509, 6510, 6511, 6512, 6513, 6514, 6515, 6516, 6517
6518, 6519, 6520, 6521, 6522, 6523, 6524, 6525, 6526, 6527, 6528, 6529, 6530, 6531, 6532, 6533
6534, 6535, 6536, 6537, 6538, 6539, 6540, 6541, 6542, 6543, 6544, 6545, 6546, 6547, 6548, 6549
6550, 6551, 6552, 6553, 6554, 6555, 6556, 6557, 6558, 6559, 6560, 6561, 6562, 6563, 6564, 6565
6566, 6567, 6568, 6569, 6570, 6571, 6572, 6573, 6574, 6575, 6576, 6577, 6578, 6579, 6580, 6581
6582, 6583, 6584, 6585, 6586, 6587, 6588, 6589, 6590, 6591, 6592, 6593, 6594, 6595, 6596, 6597
6598, 6599, 6600, 6601, 6602, 6603, 6604, 6605, 6606, 6607, 6608, 6609, 6610, 6611, 6612, 6613
6614, 6615, 6616, 6617, 6618, 6619, 6620, 6621, 6622, 6623, 6624, 6625, 6626, 6627, 6628, 6629
6630, 6631, 6632, 6633, 6634, 6635, 6636, 6637, 6638, 6639, 6640, 6641, 6642, 6643, 6644, 6645
6646, 6647, 6648, 6649, 6650, 6651, 6652, 6653, 6654, 6655, 6656, 6657, 6658, 6659, 6660, 6661
6662, 6663, 6664, 6665, 6666, 6667, 6668, 6669, 6670, 6671, 6672, 6673, 6674, 6675, 6676, 6677
6678, 6679, 6680, 6681, 6682, 6683, 6684, 6685, 6686, 6687, 6688, 6689, 6690, 6691, 6692, 6693
6694, 6695, 6696, 6697, 6698, 6699, 6700, 6701, 6702, 6703, 6704, 6705, 6706, 6707, 6708, 6709
6710, 6711, 6712, 6713, 6714, 6715, 6716, 6717, 6718, 6719, 6720, 6721, 6722, 6723, 6724, 6725
6726, 6727, 6728, 6729, 6730, 6731, 6732, 6733, 6734, 6735, 6736, 6737, 6738, 6739, 6740, 6741
6742, 6743, 6744, 6745, 6746, 6747, 6748, 6749, 6750, 6751, 6752, 6753, 6754, 6755, 6756, 6757
6758, 6759, 6760, 6761, 6762, 6763, 6764, 6765, 6766, 6767, 6768, 6769, 6770, 6771, 6772, 6773
6774, 6775, 6776, 6777, 6778, 6779, 6780, 6781, 6782, 6783, 6784, 6785, 6786, 6787, 6788, 6789
6790, 6791, 6792, 6793, 6794, 6795, 6796, 6797, 6798, 6799, 6800, 6801, 6802, 6803, 6804, 6805
6806, 6807, 6808, 6809, 6810, 6811, 6812, 6813, 6814, 6815, 6816, 6817, 6818, 6819, 6820, 6821
6822, 6823, 6824, 6825, 6826, 6827, 6828, 6829, 6830, 6831, 6832, 6833, 6834, 6835, 6836, 6837
6838, 6839, 6840, 6841, 6842, 6843, 6844, 6845, 6846, 6847, 6848, 6849, 6850, 6851, 6852, 6853
6854, 6855, 6856, 6857, 6858, 6859, 6860, 6861, 6862, 6863, 6864, 6865, 6866, 6867, 6868, 6869
6870, 6871, 6872, 6873, 6874, 6875, 6876, 6877, 6878, 6879, 6880, 6881, 6882, 6883, 6884, 6885
6886, 6887, 6888, 6889, 6890, 6891, 6892, 6893, 6894, 6895, 6896, 6897, 6898, 6899, 6900, 6901
6902, 6903, 6904, 6905, 6906, 6907, 6908, 6909, 6910, 6911, 6912, 6913, 6914, 6915, 6916, 6917
6918, 6919, 6920, 6921, 6922, 6923, 6924, 6925, 6926, 6927, 6928, 6929, 6930, 6931, 6932, 6933
6934, 6935, 6936, 6937, 6938, 6939, 6940, 6941, 6942, 6943, 6944, 6945, 6946, 6947, 6948, 6949
6950, 6951, 6952, 6953, 6954, 6955, 6956, 6957, 6958, 6959, 6960, 6961, 6962, 6963, 6964, 6965
6966, 6967, 6968, 6969, 6970, 6971, 6972, 6973, 6974, 6975, 6976, 6977, 6978, 6979, 6980, 6981
6982, 6983, 6984, 6985, 6986, 6987, 6988, 6989, 6990, 6991, 6992, 6993, 6994, 6995, 6996, 6997
6998, 6999, 7000, 7001, 7002, 7003, 7004, 7005, 7006, 7007, 7008, 7009, 7010, 7011, 7012, 7013
7014, 7015, 7016, 7017, 7018, 7019, 7020, 7021, 7022, 7023, 7024, 7025, 7026, 7027, 7028, 7029
7030, 7031, 7032, 7033, 7034, 7035, 7036, 7037, 7038, 7039, 7040, 7041, 7042, 7043, 7044, 7045
7046, 7047, 7048, 7049, 7050, 7051, 7052, 7053, 7054, 7055, 7056, 7057, 7058, 7059, 7060, 7061
7062, 7063, 7064, 7065, 7066, 7067, 7068, 7069, 7070, 7071, 7072, 7073, 7074, 7075, 7076, 7077
7078, 7079, 7080, 7081, 7082, 7083, 7084, 7085, 7086, 7087, 7088, 7089, 7090, 7091, 7092, 7093
7094, 7095, 7096, 7097, 7098, 7099, 7100, 7101, 7102, 7103, 7104, 7105, 7106, 7107, 7108, 7109
7110, 7111, 7112, 7113, 7114, 7115, 7116, 7117, 7118, 7119, 7120, 7121, 7122, 7123, 7124, 7125
7126, 7127, 7128, 7129, 7130, 7131, 7132, 7133, 7134, 7135, 7136, 7137, 7138, 7139, 7140, 7141
7142, 7143, 7144, 7145, 7146, 7147, 7148, 7149, 7150, 7151, 7152, 7153, 7154, 7155, 7156, 7157
7158, 7159, 7160, 7161, 7162, 7163, 7164, 7165, 7166, 7167, 7168, 7169, 7170, 7171, 7172, 7173
7174, 7175, 7176, 7177, 7178, 7179, 7180, 7181, 7182, 7183, 7184, 7185, 7186, 7187, 7188, 7189
7190, 7191, 7192, 7193, 7194, 7195, 7196, 7197, 7198, 7199, 7200, 7201, 7202, 7203, 7204, 7205
7206, 7207, 7208, 7209, 7210, 7211, 7212, 7213, 7214, 7215, 7216, 7217, 7218, 7219, 7220, 7221
7222, 7223, 7224, 7225, 7226, 7227, 7228, 7229, 7230, 7231, 7232, 7233, 7234, 7235, 7236, 7237
7238, 7239, 7240, 7241, 7242, 7243, 7244, 7245, 7246, 7247, 7248, 7249, 7250, 7251, 7252, 7253
7254, 7255, 7256, 7257, 7258, 7259, 7260, 7261, 7262, 7263, 7264, 7265, 7266, 7267, 7268, 7269
7270, 7271, 7272, 7273, 7274, 7275, 7276, 7277, 7278, 7279, 7280, 7281, 7282, 7283, 7284, 7285
7286, 7287, 7288, 7289, 7290, 7291, 7292, 7293, 7294, 7295, 7296, 7297, 7298, 7299, 7300, 7301
7302, 7303, 7304, 7305, 7306, 7307, 7308, 7309, 7310, 7311, 7312, 7313, 7314, 7315, 7316, 7317
7318, 7319, 7320, 7321, 7322, 7323, 7324, 7325, 7326, 7327, 7328, 7329, 7330, 7331, 7332, 7333
7334, 7335, 7336, 7337, 7338, 7339, 7340, 7341, 7342, 7343, 7344, 7345, 7346, 7347, 7348, 7349
7350, 7351, 7352, 7353, 7354, 7355, 7356, 7357, 7358, 7359, 7360, 7361, 7362, 7363, 7364, 7365
7366, 7367, 7368, 7369, 7370, 7371, 7372, 7373, 7374, 7375, 7376, 7377, 7378, 7379, 7380, 7381
7382, 7383, 7384, 7385, 7386, 7387, 7388, 7389, 7390, 7391, 7392, 7393, 7394, 7395, 7396, 7397
7398, 7399, 7400, 7401, 7402, 7403, 7404, 7405, 7406, 7407, 7408, 7409, 7410, 7411, 7412, 7413
7414, 7415, 7416, 7417, 7418, 7419, 7420, 7421, 7422, 7423, 7424, 7425, 7426, 7427, 7428, 7429
7430, 7431, 7432, 7433, 7434, 7435, 7436, 7437, 7438, 7439, 7440, 7441, 7442, 7443, 7444, 7445
7446, 7447, 7448, 7449, 7450, 7451, 7452, 7453, 7454, 7455, 7456, 7457, 7458, 7459, 7460, 7461
7462, 7463, 7464, 7465, 7466, 7467, 7468, 7469, 7470, 7471, 7472, 7473, 7474, 7475, 7476, 7477
7478, 7479, 7480, 7481, 7482, 7483, 7484, 7485, 7486, 7487, 7488, 7489, 7490, 7491, 7492, 7493
7494, 7495, 7496, 7497, 7498, 7499, 7500, 7501, 7502, 7503, 7504, 7505, 7506, 7507, 7508, 7509
7510, 7511, 7512, 7513, 7514, 7515, 7516, 7517, 7518, 7519, 7520, 7521, 7522, 7523, 7524, 7525
7526, 7527, 7528, 7529, 7530, 7531, 7532, 7533, 7534, 7535, 7536, 7537, 7538, 7539, 7540, 7541
7542, 7543, 7544, 7545, 7546, 7547, 7548, 7549, 7550, 7551, 7552, 7553, 7554, 7555, 7556, 7557
7558, 7559, 7560, 7561, 7562, 7563, 7564, 7565, 7566, 7567, 7568, 7569, 7570, 7571, 7572, 7573
7574, 7575, 7576, 7577, 7578, 7579, 7580, 7581, 7582, 7583, 7584, 7585, 7586, 7587, 7588, 7589
7590, 7591, 7592, 7593, 7594, 7595, 7596, 7597, 7598, 7599, 7600, 7601, 7602, 7603, 7604, 7605
7606, 7607, 7608, 7609, 7610, 7611, 7612, 7613, 7614, 7615, 7616, 7617, 7618, 7619, 7620, 7621
7622, 7623, 7624, 7625, 7626, 7627, 7628, 7629, 7630, 7631, 7632, 7633, 7634, 7635, 7636, 7637
7638, 7639, 7640, 7641, 7642, 7643, 7644, 7645, 7646, 7647, 7648, 7649, 7650, 7651, 7652, 7653
7654, 7655, 7656, 7657, 7658, 7659, 7660, 7661, 7662, 7663, 7664, 7665, 7666, 7667, 7668, 7669
7670, 7671, 7672, 7673, 7674, 7675, 7676, 7677, 7678, 7679, 7680, 7681, 7682, 7683, 7684, 7685
7686, 7687, 7688, 7689, 7690, 7691, 7692, 7693, 7694, 7695, 7696, 7697, 7698, 7699, 7700, 7701
7702, 7703, 7704, 7705, 7706, 7707, 7708, 7709, 7710, 7711, 7712, 7713, 7714, 7715, 7716, 7717
7718, 7719, 7720, 7721, 7722, 7723, 7724, 7725, 7726, 7727, 7728, 7729, 7730, 7731, 7732, 7733
7734, 7735, 7736, 7737, 7738, 7739, 7740, 7741, 7742, 7743, 7744, 7745, 7746, 7747, 7748, 7749
7750, 7751, 7752, 7753, 7754, 7755, 7756, 7757, 7758, 7759, 7760, 7761, 7762, 7763, 7764, 7765
7766, 7767, 7768, 7769, 7770, 7771, 7772, 7773, 7774, 7775, 7776, 7777, 7778, 7779, 7780, 7781
7782, 7783, 7784, 7785, 7786, 7787, 7788, 7789, 7790, 7791, 7792, 7793, 7794, 7795, 7796, 7797
7798, 7799, 7800, 7801, 7802, 7803, 7804, 7805, 7806, 7807, 7808, 7809, 7810, 7811, 7812, 7813
7814, 7815, 7816, 7817, 7818, 7819, 7820, 7821, 7822, 7823, 7824, 7825, 7826, 7827, 7828, 7829
7830, 7831, 7832, 7833, 7834, 7835, 7836, 7837, 7838, 7839, 7840, 7841, 7842, 7843, 7844, 7845
7846, 7847, 7848, 7849, 7850, 7851, 7852, 7853, 7854, 7855, 7856, 7857, 7858, 7859, 7860, 7861
7862, 7863, 7864, 7865, 7866, 7867, 7868, 7869, 7870, 7871, 7872, 7873, 7874, 7875, 7876, 7877
7878, 7879, 7880, 7881, 7882, 7883, 7884, 7885, 7886, 7887, 7888, 7889, 7890, 7891, 7892, 7893
7894, 7895, 7896, 7897, 7898, 7899, 7900, 7901, 7902, 7903, 7904, 7905, 7906, 7907, 7908, 7909
7910, 7911, 7912, 7913, 7914, 7915, 7916, 7917, 7918, 7919, 7920, 7921, 7922, 7923, 7924, 7925
7926, 7927, 7928, 7929, 7930, 7931, 7932, 7933, 7934, 7935, 7936, 7937, 7938, 7939, 7940, 7941
7942, 7943, 7944, 7945, 7946, 7947, 7948, 7949, 7950, 7951, 7952, 7953, 7954, 7955, 7956, 7957
7958, 7959, 7960, 7961, 7962, 7963, 7964, 7965, 7966, 7967, 7968, 7969, 7970, 7971, 7972, 7973
7974, 7975, 7976, 7977, 7978, 7979, 7980, 7981, 7982, 7983, 7984, 7985, 7986, 7987, 7988, 7989
7990, 7991, 7992, 7993, 7994, 7995, 7996, 7997, 7998, 7999, 8000, 8001, 8002, 8003, 8004, 8005
8006, 8007, 8008, 8009, 8010, 8011, 8012, 8013, 8014, 8015, 8016, 8017, 8018, 8019, 8020, 8021
8022, 8023, 8024, 8025, 8026, 8027, 8028, 8029, 8030, 8031, 8032, 8033, 8034, 8035, 8036, 8037
8038, 8039, 8040, 8041, 8042, 8043, 8044, 8045, 8046, 8047, 8048, 8049, 8050, 8051, 8052, 8053
8054, 8055, 8056, 8057, 8058, 8059, 8060, 8061, 8062, 8063, 8064, 8065, 8066, 8067, 8068, 8069
8070, 8071, 8072, 8073, 8074, 8075, 8076, 8077, 8078, 8079, 8080, 8081, 8082, 8083, 8084, 8085
8086, 8087, 8088, 8089, 8090, 8091, 8092, 8093, 8094, 8095, 8096, 8097, 8098, 8099, 8100, 8101
8102, 8103, 8104, 8105, 8106, 8107, 8108, 8109, 8110, 8111, 8112, 8113, 8114, 8115, 8116, 8117
8118, 8119, 8120, 8121, 8122, 8123, 8124, 8125, 8126, 8127, 8128, 8129, 8130, 8131, 8132, 8133
8134, 8135, 8136, 8137, 8138, 8139, 8140, 8141, 8142, 8143, 8144, 8145, 8146, 8147, 8148, 8149
8150, 8151, 8152, 8153, 8154, 8155, 8156, 8157, 8158, 8159, 8160, 8161, 8162, 8163, 8164, 8165
8166, 8167, 8168, 8169, 8170, 8171, 8172, 8173, 8174, 8175, 8176, 8177, 8178, 8179, 8180, 8181
8182, 8183, 8184, 8185, 8186, 8187, 8188, 8189, 8190, 8191, 8192, 8193, 8194, 8195, 8196, 8197
8198, 8199, 8200, 8201, 8202, 8203, 8204, 8205, 8206, 8207, 8208, 8209, 8210, 8211, 8212, 8213
8214, 8215, 8216, 8217, 8218, 8219, 8220, 8221, 8222, 8223, 8224, 8225, 8226, 8227, 8228, 8229
8230, 8231, 8232, 8233, 8234, 8235, 8236, 8237, 8238, 8239, 8240, 8241, 8242, 8243, 8244, 8245
8246, 8247, 8248, 8249, 8250, 8251, 8252, 8253, 8254, 8255, 8256, 8257, 8258, 8259, 8260, 8261
8262, 8263, 8264, 8265, 8266, 8267, 8268, 8269, 8270, 8271, 8272, 8273, 8274, 8275, 8276, 8277
8278, 8279, 8280, 8281, 8282, 8283, 8284, 8285, 8286, 8287, 8288, 8289, 8290, 8291, 8292, 8293
8294, 8295, 8296, 8297, 8298, 8299, 8300, 8301, 8302, 8303, 8304, 8305, 8306, 8307, 8308, 8309
8310, 8311, 8312, 8313, 8314, 8315, 8316, 8317, 8318, 8319, 8320, 8321, 8322, 8323, 8324, 8325
8326, 8327, 8328, 8329, 8330, 8331, 8332, 8333, 8334, 8335, 8336, 8337, 8338, 8339, 8340, 8341
8342, 8343, 8344, 8345, 8346, 8347, 8348, 8349, 8350, 8351, 8352, 8353, 8354, 8355, 8356, 8357
8358, 8359, 8360, 8361, 8362, 8363, 8364, 8365, 8366, 8367, 8368, 8369, 8370, 8371, 8372, 8373
8374, 8375, 8376, 8377, 8378, 8379, 8380, 8381, 8382, 8383, 8384, 8385, 8386, 8387, 8388, 8389
8390, 8391, 8392, 8393, 8394, 8395, 8396, 8397, 8398, 8399, 8400, 8401, 8402, 8403, 8404, 8405
8406, 8407, 8408, 8409, 8410, 8411, 8412, 8413, 8414, 8415, 8416, 8417, 8418, 8419, 8420, 8421
8422, 8423, 8424, 8425, 8426, 8427, 8428, 8429, 8430, 8431, 8432, 8433, 8434, 8435, 8436, 8437
8438, 8439, 8440, 8441, 8442, 8443, 8444, 8445, 8446, 8447, 8448, 8449, 8450, 8451, 8452, 8453
8454, 8455, 8456, 8457, 8458, 8459, 8460, 8461, 8462, 8463, 8464, 8465, 8466, 8467, 8468, 8469
8470, 8471, 8472, 8473, 8474, 8475, 8476, 8477, 8478, 8479, 8480, 8481, 8482, 8483, 8484, 8485
8486, 8487, 8488, 8489, 8490, 8491, 8492, 8493, 8494, 8495, 8496, 8497, 8498, 8499, 8500, 8501
8502, 8503, 8504, 8505, 8506, 8507, 8508, 8509, 8510, 8511, 8512, 8513, 8514, 8515, 8516, 8517
8518, 8519, 8520, 8521, 8522, 8523, 8524, 8525, 8526, 8527, 8528, 8529, 8530, 8531, 8532, 8533
8534, 8535, 8536, 8537, 8538, 8539, 8540, 8541, 8542, 8543, 8544, 8545, 8546, 8547, 8548, 8549
8550, 8551, 8552, 8553, 8554, 8555, 8556, 8557, 8558, 8559, 8560, 8561, 8562, 8563, 8564, 8565
8566, 8567, 8568, 8569, 8570, 8571, 8572, 8573, 8574, 8575, 8576, 8577, 8578, 8579, 8580, 8581
8582, 8583, 8584, 8585, 8586, 8587, 8588, 8589, 8590, 8591, 8592, 8593, 8594, 8595, 8596, 8597
8598, 8599, 8600, 8601, 8602, 8603, 8604, 8605, 8606, 8607, 8608, 8609, 8610, 8611, 8612, 8613
8614, 8615, 8616, 8617, 8618, 8619, 8620, 8621, 8622, 8623, 8624, 8625, 8626, 8627, 8628, 8629
8630, 8631, 8632, 8633, 8634, 8635, 8636, 8637, 8638, 8639, 8640, 8641, 8642, 8643, 8644, 8645
8646, 8647, 8648, 8649, 8650, 8651, 8652, 8653, 8654, 8655, 8656, 8657, 8658, 8659, 8660, 8661
8662, 8663, 8664, 8665, 8666, 8667, 8668, 8669, 8670, 8671, 8672, 8673, 8674, 8675, 8676, 8677
8678, 8679, 8680, 8681, 8682, 8683, 8684, 8685, 8686, 8687, 8688, 8689, 8690, 8691, 8692, 8693
8694, 8695, 8696, 8697, 8698, 8699, 8700, 8701, 8702, 8703, 8704, 8705, 8706, 8707, 8708, 8709
8710, 8711, 8712, 8713, 8714, 8715, 8716, 8717, 8718, 8719, 8720, 8721, 8722, 8723, 8724, 8725
8726, 8727, 8728, 8729, 8730, 8731, 8732, 8733, 8734, 8735, 8736, 8737, 8738, 8739, 8740, 8741
8742, 8743, 8744, 8745, 8746, 8747, 8748, 8749, 8750, 8751, 8752, 8753, 8754, 8755, 8756, 8757
8758, 8759, 8760, 8761, 8762, 8763, 8764, 8765, 8766, 8767, 8768, 8769, 8770, 8771, 8772, 8773
8774, 8775, 8776, 8777, 8778, 8779, 8780, 8781, 8782, 8783, 8784, 8785, 8786, 8787, 8788, 8789
8790, 8791, 8792, 8793, 8794, 8795, 8796, 8797, 8798, 8799, 8800, 8801, 8802, 8803, 8804, 8805

*Shell Section, ELSET=set2, MATERIAL=C40/50
200.0

*End Part

*ASSEMBLY, NAME=CompisteIGriderBridgeSpans20_SA

*INSTANCE, NAME=CompisteIGriderBridgeSpans20_SA-1, PART=CompisteIGriderBridgeSpans20_SA

*END INSTANCE


*END ASSEMBLY

**
** MATERIALS
**
*Material, name=C40/50
*Density
2.5e-09,
*Elastic
35000.0, 0.2
*Material, name=S355
*Density
7.8e-09,
*Elastic
210000.0, 0.3
*Material, name=Rigid
*Elastic
100000000.0, 0.0
**
** BOUNDARY CONDITIONS
**

*Step, name=Step-1, nlgeom=NO, inc=5
*Static, direct
0.2, 1.,
**
** OUTPUT REQUESTS
**
*RESTART, WRITE, FREQUENCY=0
*OUTPUT, FIELD, VARIABLE=PRESELECT
*OUTPUT, HISTORY, VARIABLE=PRESELECT
*END STEP
