*Heading
** Generated by OSAM INP Converter

*Part, name=CompisteIGriderBridgeSpans2_SA

*NODE
1,           0, -3.3975e-13,-1.43894e-12
2,        1000, -3.3975e-13,-1.43894e-12
3,       20000, -3.3975e-13,-1.43894e-12
4,       21000, -3.3975e-13,-1.43894e-12
5,        2000, -3.3975e-13,-1.43894e-12
6,       22000, -3.3975e-13,-1.43894e-12
7,        3000, -3.3975e-13,-1.43894e-12
8,       23000, -3.3975e-13,-1.43894e-12
9,        4000, -3.3975e-13,-1.43894e-12
10,       24000, -3.3975e-13,-1.43894e-12
11,        5000, -3.3975e-13,-1.43894e-12
12,       25000, -3.3975e-13,-1.43894e-12
13,        6000, -3.3975e-13,-1.43894e-12
14,       26000, -3.3975e-13,-1.43894e-12
15,        7000, -3.3975e-13,-1.43894e-12
16,       27000, -3.3975e-13,-1.43894e-12
17,        8000, -3.3975e-13,-1.43894e-12
18,       28000, -3.3975e-13,-1.43894e-12
19,        9000, -3.3975e-13,-1.43894e-12
20,       29000, -3.3975e-13,-1.43894e-12
21,       10000, -3.3975e-13,-1.43894e-12
22,       30000, -3.3975e-13,-1.43894e-12
23,       11000, -3.3975e-13,-1.43894e-12
24,       31000, -3.3975e-13,-1.43894e-12
25,       12000, -3.3975e-13,-1.43894e-12
26,       32000, -3.3975e-13,-1.43894e-12
27,       13000, -3.3975e-13,-1.43894e-12
28,       33000, -3.3975e-13,-1.43894e-12
29,       14000, -3.3975e-13,-1.43894e-12
30,       34000, -3.3975e-13,-1.43894e-12
31,       15000, -3.3975e-13,-1.43894e-12
32,       35000, -3.3975e-13,-1.43894e-12
33,       16000, -3.3975e-13,-1.43894e-12
34,       36000, -3.3975e-13,-1.43894e-12
35,       17000, -3.3975e-13,-1.43894e-12
36,       37000, -3.3975e-13,-1.43894e-12
37,       18000, -3.3975e-13,-1.43894e-12
38,       38000, -3.3975e-13,-1.43894e-12
39,       19000, -3.3975e-13,-1.43894e-12
40,       39000, -3.3975e-13,-1.43894e-12
41,       40000, -3.3975e-13,-1.43894e-12
42,           0,        2100,-1.43894e-12
43,        1000,        2100,-1.43894e-12
44,       20000,        2100,-1.43894e-12
45,       21000,        2100,-1.43894e-12
46,        2000,        2100,-1.43894e-12
47,       22000,        2100,-1.43894e-12
48,        3000,        2100,-1.43894e-12
49,       23000,        2100,-1.43894e-12
50,        4000,        2100,-1.43894e-12
51,       24000,        2100,-1.43894e-12
52,        5000,        2100,-1.43894e-12
53,       25000,        2100,-1.43894e-12
54,        6000,        2100,-1.43894e-12
55,       26000,        2100,-1.43894e-12
56,        7000,        2100,-1.43894e-12
57,       27000,        2100,-1.43894e-12
58,        8000,        2100,-1.43894e-12
59,       28000,        2100,-1.43894e-12
60,        9000,        2100,-1.43894e-12
61,       29000,        2100,-1.43894e-12
62,       10000,        2100,-1.43894e-12
63,       30000,        2100,-1.43894e-12
64,       11000,        2100,-1.43894e-12
65,       31000,        2100,-1.43894e-12
66,       12000,        2100,-1.43894e-12
67,       32000,        2100,-1.43894e-12
68,       13000,        2100,-1.43894e-12
69,       33000,        2100,-1.43894e-12
70,       14000,        2100,-1.43894e-12
71,       34000,        2100,-1.43894e-12
72,       15000,        2100,-1.43894e-12
73,       35000,        2100,-1.43894e-12
74,       16000,        2100,-1.43894e-12
75,       36000,        2100,-1.43894e-12
76,       17000,        2100,-1.43894e-12
77,       37000,        2100,-1.43894e-12
78,       18000,        2100,-1.43894e-12
79,       38000,        2100,-1.43894e-12
80,       19000,        2100,-1.43894e-12
81,       39000,        2100,-1.43894e-12
82,       40000,        2100,-1.43894e-12
83,           0,        4200,-1.43894e-12
84,        1000,        4200,-1.43894e-12
85,       20000,        4200,-1.43894e-12
86,       21000,        4200,-1.43894e-12
87,        2000,        4200,-1.43894e-12
88,       22000,        4200,-1.43894e-12
89,        3000,        4200,-1.43894e-12
90,       23000,        4200,-1.43894e-12
91,        4000,        4200,-1.43894e-12
92,       24000,        4200,-1.43894e-12
93,        5000,        4200,-1.43894e-12
94,       25000,        4200,-1.43894e-12
95,        6000,        4200,-1.43894e-12
96,       26000,        4200,-1.43894e-12
97,        7000,        4200,-1.43894e-12
98,       27000,        4200,-1.43894e-12
99,        8000,        4200,-1.43894e-12
100,       28000,        4200,-1.43894e-12
101,        9000,        4200,-1.43894e-12
102,       29000,        4200,-1.43894e-12
103,       10000,        4200,-1.43894e-12
104,       30000,        4200,-1.43894e-12
105,       11000,        4200,-1.43894e-12
106,       31000,        4200,-1.43894e-12
107,       12000,        4200,-1.43894e-12
108,       32000,        4200,-1.43894e-12
109,       13000,        4200,-1.43894e-12
110,       33000,        4200,-1.43894e-12
111,       14000,        4200,-1.43894e-12
112,       34000,        4200,-1.43894e-12
113,       15000,        4200,-1.43894e-12
114,       35000,        4200,-1.43894e-12
115,       16000,        4200,-1.43894e-12
116,       36000,        4200,-1.43894e-12
117,       17000,        4200,-1.43894e-12
118,       37000,        4200,-1.43894e-12
119,       18000,        4200,-1.43894e-12
120,       38000,        4200,-1.43894e-12
121,       19000,        4200,-1.43894e-12
122,       39000,        4200,-1.43894e-12
123,       40000,        4200,-1.43894e-12
124,           0,       -2100,-1.43894e-12
125,        1000,       -2100,-1.43894e-12
126,       20000,       -2100,-1.43894e-12
127,       21000,       -2100,-1.43894e-12
128,        2000,       -2100,-1.43894e-12
129,       22000,       -2100,-1.43894e-12
130,        3000,       -2100,-1.43894e-12
131,       23000,       -2100,-1.43894e-12
132,        4000,       -2100,-1.43894e-12
133,       24000,       -2100,-1.43894e-12
134,        5000,       -2100,-1.43894e-12
135,       25000,       -2100,-1.43894e-12
136,        6000,       -2100,-1.43894e-12
137,       26000,       -2100,-1.43894e-12
138,        7000,       -2100,-1.43894e-12
139,       27000,       -2100,-1.43894e-12
140,        8000,       -2100,-1.43894e-12
141,       28000,       -2100,-1.43894e-12
142,        9000,       -2100,-1.43894e-12
143,       29000,       -2100,-1.43894e-12
144,       10000,       -2100,-1.43894e-12
145,       30000,       -2100,-1.43894e-12
146,       11000,       -2100,-1.43894e-12
147,       31000,       -2100,-1.43894e-12
148,       12000,       -2100,-1.43894e-12
149,       32000,       -2100,-1.43894e-12
150,       13000,       -2100,-1.43894e-12
151,       33000,       -2100,-1.43894e-12
152,       14000,       -2100,-1.43894e-12
153,       34000,       -2100,-1.43894e-12
154,       15000,       -2100,-1.43894e-12
155,       35000,       -2100,-1.43894e-12
156,       16000,       -2100,-1.43894e-12
157,       36000,       -2100,-1.43894e-12
158,       17000,       -2100,-1.43894e-12
159,       37000,       -2100,-1.43894e-12
160,       18000,       -2100,-1.43894e-12
161,       38000,       -2100,-1.43894e-12
162,       19000,       -2100,-1.43894e-12
163,       39000,       -2100,-1.43894e-12
164,       40000,       -2100,-1.43894e-12
165,           0,       -4200,-1.43894e-12
166,        1000,       -4200,-1.43894e-12
167,       20000,       -4200,-1.43894e-12
168,       21000,       -4200,-1.43894e-12
169,        2000,       -4200,-1.43894e-12
170,       22000,       -4200,-1.43894e-12
171,        3000,       -4200,-1.43894e-12
172,       23000,       -4200,-1.43894e-12
173,        4000,       -4200,-1.43894e-12
174,       24000,       -4200,-1.43894e-12
175,        5000,       -4200,-1.43894e-12
176,       25000,       -4200,-1.43894e-12
177,        6000,       -4200,-1.43894e-12
178,       26000,       -4200,-1.43894e-12
179,        7000,       -4200,-1.43894e-12
180,       27000,       -4200,-1.43894e-12
181,        8000,       -4200,-1.43894e-12
182,       28000,       -4200,-1.43894e-12
183,        9000,       -4200,-1.43894e-12
184,       29000,       -4200,-1.43894e-12
185,       10000,       -4200,-1.43894e-12
186,       30000,       -4200,-1.43894e-12
187,       11000,       -4200,-1.43894e-12
188,       31000,       -4200,-1.43894e-12
189,       12000,       -4200,-1.43894e-12
190,       32000,       -4200,-1.43894e-12
191,       13000,       -4200,-1.43894e-12
192,       33000,       -4200,-1.43894e-12
193,       14000,       -4200,-1.43894e-12
194,       34000,       -4200,-1.43894e-12
195,       15000,       -4200,-1.43894e-12
196,       35000,       -4200,-1.43894e-12
197,       16000,       -4200,-1.43894e-12
198,       36000,       -4200,-1.43894e-12
199,       17000,       -4200,-1.43894e-12
200,       37000,       -4200,-1.43894e-12
201,       18000,       -4200,-1.43894e-12
202,       38000,       -4200,-1.43894e-12
203,       19000,       -4200,-1.43894e-12
204,       39000,       -4200,-1.43894e-12
205,       40000,       -4200,-1.43894e-12
206,           0, -3.3975e-13,         700
207,       20000, -3.3975e-13,         700
208,        1000, -3.3975e-13,         700
209,       21000, -3.3975e-13,         700
210,        2000, -3.3975e-13,         700
211,       22000, -3.3975e-13,         700
212,        3000, -3.3975e-13,         700
213,       23000, -3.3975e-13,         700
214,        4000, -3.3975e-13,         700
215,       24000, -3.3975e-13,         700
216,        5000, -3.3975e-13,         700
217,       25000, -3.3975e-13,         700
218,        6000, -3.3975e-13,         700
219,       26000, -3.3975e-13,         700
220,        7000, -3.3975e-13,         700
221,       27000, -3.3975e-13,         700
222,        8000, -3.3975e-13,         700
223,       28000, -3.3975e-13,         700
224,        9000, -3.3975e-13,         700
225,       29000, -3.3975e-13,         700
226,       10000, -3.3975e-13,         700
227,       30000, -3.3975e-13,         700
228,       11000, -3.3975e-13,         700
229,       31000, -3.3975e-13,         700
230,       12000, -3.3975e-13,         700
231,       32000, -3.3975e-13,         700
232,       13000, -3.3975e-13,         700
233,       33000, -3.3975e-13,         700
234,       14000, -3.3975e-13,         700
235,       34000, -3.3975e-13,         700
236,       15000, -3.3975e-13,         700
237,       35000, -3.3975e-13,         700
238,       16000, -3.3975e-13,         700
239,       36000, -3.3975e-13,         700
240,       17000, -3.3975e-13,         700
241,       37000, -3.3975e-13,         700
242,       18000, -3.3975e-13,         700
243,       38000, -3.3975e-13,         700
244,       19000, -3.3975e-13,         700
245,       39000, -3.3975e-13,         700
246,       40000, -3.3975e-13,         700
247,           0,        2100,         700
248,       20000,        2100,         700
249,        1000,        2100,         700
250,       21000,        2100,         700
251,        2000,        2100,         700
252,       22000,        2100,         700
253,        3000,        2100,         700
254,       23000,        2100,         700
255,        4000,        2100,         700
256,       24000,        2100,         700
257,        5000,        2100,         700
258,       25000,        2100,         700
259,        6000,        2100,         700
260,       26000,        2100,         700
261,        7000,        2100,         700
262,       27000,        2100,         700
263,        8000,        2100,         700
264,       28000,        2100,         700
265,        9000,        2100,         700
266,       29000,        2100,         700
267,       10000,        2100,         700
268,       30000,        2100,         700
269,       11000,        2100,         700
270,       31000,        2100,         700
271,       12000,        2100,         700
272,       32000,        2100,         700
273,       13000,        2100,         700
274,       33000,        2100,         700
275,       14000,        2100,         700
276,       34000,        2100,         700
277,       15000,        2100,         700
278,       35000,        2100,         700
279,       16000,        2100,         700
280,       36000,        2100,         700
281,       17000,        2100,         700
282,       37000,        2100,         700
283,       18000,        2100,         700
284,       38000,        2100,         700
285,       19000,        2100,         700
286,       39000,        2100,         700
287,       40000,        2100,         700
288,           0,        4200,         700
289,       20000,        4200,         700
290,        1000,        4200,         700
291,       21000,        4200,         700
292,        2000,        4200,         700
293,       22000,        4200,         700
294,        3000,        4200,         700
295,       23000,        4200,         700
296,        4000,        4200,         700
297,       24000,        4200,         700
298,        5000,        4200,         700
299,       25000,        4200,         700
300,        6000,        4200,         700
301,       26000,        4200,         700
302,        7000,        4200,         700
303,       27000,        4200,         700
304,        8000,        4200,         700
305,       28000,        4200,         700
306,        9000,        4200,         700
307,       29000,        4200,         700
308,       10000,        4200,         700
309,       30000,        4200,         700
310,       11000,        4200,         700
311,       31000,        4200,         700
312,       12000,        4200,         700
313,       32000,        4200,         700
314,       13000,        4200,         700
315,       33000,        4200,         700
316,       14000,        4200,         700
317,       34000,        4200,         700
318,       15000,        4200,         700
319,       35000,        4200,         700
320,       16000,        4200,         700
321,       36000,        4200,         700
322,       17000,        4200,         700
323,       37000,        4200,         700
324,       18000,        4200,         700
325,       38000,        4200,         700
326,       19000,        4200,         700
327,       39000,        4200,         700
328,       40000,        4200,         700
329,           0,       -2100,         700
330,       20000,       -2100,         700
331,        1000,       -2100,         700
332,       21000,       -2100,         700
333,        2000,       -2100,         700
334,       22000,       -2100,         700
335,        3000,       -2100,         700
336,       23000,       -2100,         700
337,        4000,       -2100,         700
338,       24000,       -2100,         700
339,        5000,       -2100,         700
340,       25000,       -2100,         700
341,        6000,       -2100,         700
342,       26000,       -2100,         700
343,        7000,       -2100,         700
344,       27000,       -2100,         700
345,        8000,       -2100,         700
346,       28000,       -2100,         700
347,        9000,       -2100,         700
348,       29000,       -2100,         700
349,       10000,       -2100,         700
350,       30000,       -2100,         700
351,       11000,       -2100,         700
352,       31000,       -2100,         700
353,       12000,       -2100,         700
354,       32000,       -2100,         700
355,       13000,       -2100,         700
356,       33000,       -2100,         700
357,       14000,       -2100,         700
358,       34000,       -2100,         700
359,       15000,       -2100,         700
360,       35000,       -2100,         700
361,       16000,       -2100,         700
362,       36000,       -2100,         700
363,       17000,       -2100,         700
364,       37000,       -2100,         700
365,       18000,       -2100,         700
366,       38000,       -2100,         700
367,       19000,       -2100,         700
368,       39000,       -2100,         700
369,       40000,       -2100,         700
370,           0,       -4200,         700
371,       20000,       -4200,         700
372,        1000,       -4200,         700
373,       21000,       -4200,         700
374,        2000,       -4200,         700
375,       22000,       -4200,         700
376,        3000,       -4200,         700
377,       23000,       -4200,         700
378,        4000,       -4200,         700
379,       24000,       -4200,         700
380,        5000,       -4200,         700
381,       25000,       -4200,         700
382,        6000,       -4200,         700
383,       26000,       -4200,         700
384,        7000,       -4200,         700
385,       27000,       -4200,         700
386,        8000,       -4200,         700
387,       28000,       -4200,         700
388,        9000,       -4200,         700
389,       29000,       -4200,         700
390,       10000,       -4200,         700
391,       30000,       -4200,         700
392,       11000,       -4200,         700
393,       31000,       -4200,         700
394,       12000,       -4200,         700
395,       32000,       -4200,         700
396,       13000,       -4200,         700
397,       33000,       -4200,         700
398,       14000,       -4200,         700
399,       34000,       -4200,         700
400,       15000,       -4200,         700
401,       35000,       -4200,         700
402,       16000,       -4200,         700
403,       36000,       -4200,         700
404,       17000,       -4200,         700
405,       37000,       -4200,         700
406,       18000,       -4200,         700
407,       38000,       -4200,         700
408,       19000,       -4200,         700
409,       39000,       -4200,         700
410,       40000,       -4200,         700
411,        1000,       -6000,         700
412,        1000,       -5100,         700
413,           0,       -5100,         700
414,           0,       -6000,         700
415,       21000,       -6000,         700
416,       21000,       -5100,         700
417,       20000,       -5100,         700
418,       20000,       -6000,         700
419,        1000,       -3150,         700
420,           0,       -3150,         700
421,       21000,       -3150,         700
422,       20000,       -3150,         700
423,        1000,       -1050,         700
424,           0,       -1050,         700
425,       21000,       -1050,         700
426,       20000,       -1050,         700
427,        1000,           0,         700
428,           0,           0,         700
429,       21000,           0,         700
430,       20000,           0,         700
431,        1000,        1050,         700
432,           0,        1050,         700
433,       21000,        1050,         700
434,       20000,        1050,         700
435,        1000,        3150,         700
436,           0,        3150,         700
437,       21000,        3150,         700
438,       20000,        3150,         700
439,        1000,        5100,         700
440,           0,        5100,         700
441,       21000,        5100,         700
442,       20000,        5100,         700
443,        1000,        6000,         700
444,           0,        6000,         700
445,       21000,        6000,         700
446,       20000,        6000,         700
447,        2000,       -6000,         700
448,        2000,       -5100,         700
449,       22000,       -6000,         700
450,       22000,       -5100,         700
451,        2000,       -3150,         700
452,       22000,       -3150,         700
453,        2000,       -1050,         700
454,       22000,       -1050,         700
455,        2000,           0,         700
456,       22000,           0,         700
457,        2000,        1050,         700
458,       22000,        1050,         700
459,        2000,        3150,         700
460,       22000,        3150,         700
461,        2000,        5100,         700
462,       22000,        5100,         700
463,        2000,        6000,         700
464,       22000,        6000,         700
465,        3000,       -6000,         700
466,        3000,       -5100,         700
467,       23000,       -6000,         700
468,       23000,       -5100,         700
469,        3000,       -3150,         700
470,       23000,       -3150,         700
471,        3000,       -1050,         700
472,       23000,       -1050,         700
473,        3000,           0,         700
474,       23000,           0,         700
475,        3000,        1050,         700
476,       23000,        1050,         700
477,        3000,        3150,         700
478,       23000,        3150,         700
479,        3000,        5100,         700
480,       23000,        5100,         700
481,        3000,        6000,         700
482,       23000,        6000,         700
483,        4000,       -6000,         700
484,        4000,       -5100,         700
485,       24000,       -6000,         700
486,       24000,       -5100,         700
487,        4000,       -3150,         700
488,       24000,       -3150,         700
489,        4000,       -1050,         700
490,       24000,       -1050,         700
491,        4000,           0,         700
492,       24000,           0,         700
493,        4000,        1050,         700
494,       24000,        1050,         700
495,        4000,        3150,         700
496,       24000,        3150,         700
497,        4000,        5100,         700
498,       24000,        5100,         700
499,        4000,        6000,         700
500,       24000,        6000,         700
501,        5000,       -6000,         700
502,        5000,       -5100,         700
503,       25000,       -6000,         700
504,       25000,       -5100,         700
505,        5000,       -3150,         700
506,       25000,       -3150,         700
507,        5000,       -1050,         700
508,       25000,       -1050,         700
509,        5000,           0,         700
510,       25000,           0,         700
511,        5000,        1050,         700
512,       25000,        1050,         700
513,        5000,        3150,         700
514,       25000,        3150,         700
515,        5000,        5100,         700
516,       25000,        5100,         700
517,        5000,        6000,         700
518,       25000,        6000,         700
519,        6000,       -6000,         700
520,        6000,       -5100,         700
521,       26000,       -6000,         700
522,       26000,       -5100,         700
523,        6000,       -3150,         700
524,       26000,       -3150,         700
525,        6000,       -1050,         700
526,       26000,       -1050,         700
527,        6000,           0,         700
528,       26000,           0,         700
529,        6000,        1050,         700
530,       26000,        1050,         700
531,        6000,        3150,         700
532,       26000,        3150,         700
533,        6000,        5100,         700
534,       26000,        5100,         700
535,        6000,        6000,         700
536,       26000,        6000,         700
537,        7000,       -6000,         700
538,        7000,       -5100,         700
539,       27000,       -6000,         700
540,       27000,       -5100,         700
541,        7000,       -3150,         700
542,       27000,       -3150,         700
543,        7000,       -1050,         700
544,       27000,       -1050,         700
545,        7000,           0,         700
546,       27000,           0,         700
547,        7000,        1050,         700
548,       27000,        1050,         700
549,        7000,        3150,         700
550,       27000,        3150,         700
551,        7000,        5100,         700
552,       27000,        5100,         700
553,        7000,        6000,         700
554,       27000,        6000,         700
555,        8000,       -6000,         700
556,        8000,       -5100,         700
557,       28000,       -6000,         700
558,       28000,       -5100,         700
559,        8000,       -3150,         700
560,       28000,       -3150,         700
561,        8000,       -1050,         700
562,       28000,       -1050,         700
563,        8000,           0,         700
564,       28000,           0,         700
565,        8000,        1050,         700
566,       28000,        1050,         700
567,        8000,        3150,         700
568,       28000,        3150,         700
569,        8000,        5100,         700
570,       28000,        5100,         700
571,        8000,        6000,         700
572,       28000,        6000,         700
573,        9000,       -6000,         700
574,        9000,       -5100,         700
575,       29000,       -6000,         700
576,       29000,       -5100,         700
577,        9000,       -3150,         700
578,       29000,       -3150,         700
579,        9000,       -1050,         700
580,       29000,       -1050,         700
581,        9000,           0,         700
582,       29000,           0,         700
583,        9000,        1050,         700
584,       29000,        1050,         700
585,        9000,        3150,         700
586,       29000,        3150,         700
587,        9000,        5100,         700
588,       29000,        5100,         700
589,        9000,        6000,         700
590,       29000,        6000,         700
591,       10000,       -6000,         700
592,       10000,       -5100,         700
593,       30000,       -6000,         700
594,       30000,       -5100,         700
595,       10000,       -3150,         700
596,       30000,       -3150,         700
597,       10000,       -1050,         700
598,       30000,       -1050,         700
599,       10000,           0,         700
600,       30000,           0,         700
601,       10000,        1050,         700
602,       30000,        1050,         700
603,       10000,        3150,         700
604,       30000,        3150,         700
605,       10000,        5100,         700
606,       30000,        5100,         700
607,       10000,        6000,         700
608,       30000,        6000,         700
609,       11000,       -6000,         700
610,       11000,       -5100,         700
611,       31000,       -6000,         700
612,       31000,       -5100,         700
613,       11000,       -3150,         700
614,       31000,       -3150,         700
615,       11000,       -1050,         700
616,       31000,       -1050,         700
617,       11000,           0,         700
618,       31000,           0,         700
619,       11000,        1050,         700
620,       31000,        1050,         700
621,       11000,        3150,         700
622,       31000,        3150,         700
623,       11000,        5100,         700
624,       31000,        5100,         700
625,       11000,        6000,         700
626,       31000,        6000,         700
627,       12000,       -6000,         700
628,       12000,       -5100,         700
629,       32000,       -6000,         700
630,       32000,       -5100,         700
631,       12000,       -3150,         700
632,       32000,       -3150,         700
633,       12000,       -1050,         700
634,       32000,       -1050,         700
635,       12000,           0,         700
636,       32000,           0,         700
637,       12000,        1050,         700
638,       32000,        1050,         700
639,       12000,        3150,         700
640,       32000,        3150,         700
641,       12000,        5100,         700
642,       32000,        5100,         700
643,       12000,        6000,         700
644,       32000,        6000,         700
645,       13000,       -6000,         700
646,       13000,       -5100,         700
647,       33000,       -6000,         700
648,       33000,       -5100,         700
649,       13000,       -3150,         700
650,       33000,       -3150,         700
651,       13000,       -1050,         700
652,       33000,       -1050,         700
653,       13000,           0,         700
654,       33000,           0,         700
655,       13000,        1050,         700
656,       33000,        1050,         700
657,       13000,        3150,         700
658,       33000,        3150,         700
659,       13000,        5100,         700
660,       33000,        5100,         700
661,       13000,        6000,         700
662,       33000,        6000,         700
663,       14000,       -6000,         700
664,       14000,       -5100,         700
665,       34000,       -6000,         700
666,       34000,       -5100,         700
667,       14000,       -3150,         700
668,       34000,       -3150,         700
669,       14000,       -1050,         700
670,       34000,       -1050,         700
671,       14000,           0,         700
672,       34000,           0,         700
673,       14000,        1050,         700
674,       34000,        1050,         700
675,       14000,        3150,         700
676,       34000,        3150,         700
677,       14000,        5100,         700
678,       34000,        5100,         700
679,       14000,        6000,         700
680,       34000,        6000,         700
681,       15000,       -6000,         700
682,       15000,       -5100,         700
683,       35000,       -6000,         700
684,       35000,       -5100,         700
685,       15000,       -3150,         700
686,       35000,       -3150,         700
687,       15000,       -1050,         700
688,       35000,       -1050,         700
689,       15000,           0,         700
690,       35000,           0,         700
691,       15000,        1050,         700
692,       35000,        1050,         700
693,       15000,        3150,         700
694,       35000,        3150,         700
695,       15000,        5100,         700
696,       35000,        5100,         700
697,       15000,        6000,         700
698,       35000,        6000,         700
699,       16000,       -6000,         700
700,       16000,       -5100,         700
701,       36000,       -6000,         700
702,       36000,       -5100,         700
703,       16000,       -3150,         700
704,       36000,       -3150,         700
705,       16000,       -1050,         700
706,       36000,       -1050,         700
707,       16000,           0,         700
708,       36000,           0,         700
709,       16000,        1050,         700
710,       36000,        1050,         700
711,       16000,        3150,         700
712,       36000,        3150,         700
713,       16000,        5100,         700
714,       36000,        5100,         700
715,       16000,        6000,         700
716,       36000,        6000,         700
717,       17000,       -6000,         700
718,       17000,       -5100,         700
719,       37000,       -6000,         700
720,       37000,       -5100,         700
721,       17000,       -3150,         700
722,       37000,       -3150,         700
723,       17000,       -1050,         700
724,       37000,       -1050,         700
725,       17000,           0,         700
726,       37000,           0,         700
727,       17000,        1050,         700
728,       37000,        1050,         700
729,       17000,        3150,         700
730,       37000,        3150,         700
731,       17000,        5100,         700
732,       37000,        5100,         700
733,       17000,        6000,         700
734,       37000,        6000,         700
735,       18000,       -6000,         700
736,       18000,       -5100,         700
737,       38000,       -6000,         700
738,       38000,       -5100,         700
739,       18000,       -3150,         700
740,       38000,       -3150,         700
741,       18000,       -1050,         700
742,       38000,       -1050,         700
743,       18000,           0,         700
744,       38000,           0,         700
745,       18000,        1050,         700
746,       38000,        1050,         700
747,       18000,        3150,         700
748,       38000,        3150,         700
749,       18000,        5100,         700
750,       38000,        5100,         700
751,       18000,        6000,         700
752,       38000,        6000,         700
753,       19000,       -6000,         700
754,       19000,       -5100,         700
755,       39000,       -6000,         700
756,       39000,       -5100,         700
757,       19000,       -3150,         700
758,       39000,       -3150,         700
759,       19000,       -1050,         700
760,       39000,       -1050,         700
761,       19000,           0,         700
762,       39000,           0,         700
763,       19000,        1050,         700
764,       39000,        1050,         700
765,       19000,        3150,         700
766,       39000,        3150,         700
767,       19000,        5100,         700
768,       39000,        5100,         700
769,       19000,        6000,         700
770,       39000,        6000,         700
771,       40000,       -6000,         700
772,       40000,       -5100,         700
773,       40000,       -3150,         700
774,       40000,       -1050,         700
775,       40000,           0,         700
776,       40000,        1050,         700
777,       40000,        3150,         700
778,       40000,        5100,         700
779,       40000,        6000,         700


*ELEMENT,  TYPE=B31
1,       1,       2
2,       3,       4
3,       2,       5
4,       4,       6
5,       5,       7
6,       6,       8
7,       7,       9
8,       8,      10
9,       9,      11
10,      10,      12
11,      11,      13
12,      12,      14
13,      13,      15
14,      14,      16
15,      15,      17
16,      16,      18
17,      17,      19
18,      18,      20
19,      19,      21
20,      20,      22
21,      21,      23
22,      22,      24
23,      23,      25
24,      24,      26
25,      25,      27
26,      26,      28
27,      27,      29
28,      28,      30
29,      29,      31
30,      30,      32
31,      31,      33
32,      32,      34
33,      33,      35
34,      34,      36
35,      35,      37
36,      36,      38
37,      37,      39
38,      38,      40
39,      39,       3
40,      40,      41
41,      42,      43
42,      44,      45
43,      43,      46
44,      45,      47
45,      46,      48
46,      47,      49
47,      48,      50
48,      49,      51
49,      50,      52
50,      51,      53
51,      52,      54
52,      53,      55
53,      54,      56
54,      55,      57
55,      56,      58
56,      57,      59
57,      58,      60
58,      59,      61
59,      60,      62
60,      61,      63
61,      62,      64
62,      63,      65
63,      64,      66
64,      65,      67
65,      66,      68
66,      67,      69
67,      68,      70
68,      69,      71
69,      70,      72
70,      71,      73
71,      72,      74
72,      73,      75
73,      74,      76
74,      75,      77
75,      76,      78
76,      77,      79
77,      78,      80
78,      79,      81
79,      80,      44
80,      81,      82
81,      83,      84
82,      85,      86
83,      84,      87
84,      86,      88
85,      87,      89
86,      88,      90
87,      89,      91
88,      90,      92
89,      91,      93
90,      92,      94
91,      93,      95
92,      94,      96
93,      95,      97
94,      96,      98
95,      97,      99
96,      98,     100
97,      99,     101
98,     100,     102
99,     101,     103
100,     102,     104
101,     103,     105
102,     104,     106
103,     105,     107
104,     106,     108
105,     107,     109
106,     108,     110
107,     109,     111
108,     110,     112
109,     111,     113
110,     112,     114
111,     113,     115
112,     114,     116
113,     115,     117
114,     116,     118
115,     117,     119
116,     118,     120
117,     119,     121
118,     120,     122
119,     121,      85
120,     122,     123
121,     124,     125
122,     126,     127
123,     125,     128
124,     127,     129
125,     128,     130
126,     129,     131
127,     130,     132
128,     131,     133
129,     132,     134
130,     133,     135
131,     134,     136
132,     135,     137
133,     136,     138
134,     137,     139
135,     138,     140
136,     139,     141
137,     140,     142
138,     141,     143
139,     142,     144
140,     143,     145
141,     144,     146
142,     145,     147
143,     146,     148
144,     147,     149
145,     148,     150
146,     149,     151
147,     150,     152
148,     151,     153
149,     152,     154
150,     153,     155
151,     154,     156
152,     155,     157
153,     156,     158
154,     157,     159
155,     158,     160
156,     159,     161
157,     160,     162
158,     161,     163
159,     162,     126
160,     163,     164
161,     165,     166
162,     167,     168
163,     166,     169
164,     168,     170
165,     169,     171
166,     170,     172
167,     171,     173
168,     172,     174
169,     173,     175
170,     174,     176
171,     175,     177
172,     176,     178
173,     177,     179
174,     178,     180
175,     179,     181
176,     180,     182
177,     181,     183
178,     182,     184
179,     183,     185
180,     184,     186
181,     185,     187
182,     186,     188
183,     187,     189
184,     188,     190
185,     189,     191
186,     190,     192
187,     191,     193
188,     192,     194
189,     193,     195
190,     194,     196
191,     195,     197
192,     196,     198
193,     197,     199
194,     198,     200
195,     199,     201
196,     200,     202
197,     201,     203
198,     202,     204
199,     203,     167
200,     204,     205
201,       1,     206
202,       3,     207
203,       2,     208
204,       4,     209
205,       5,     210
206,       6,     211
207,       7,     212
208,       8,     213
209,       9,     214
210,      10,     215
211,      11,     216
212,      12,     217
213,      13,     218
214,      14,     219
215,      15,     220
216,      16,     221
217,      17,     222
218,      18,     223
219,      19,     224
220,      20,     225
221,      21,     226
222,      22,     227
223,      23,     228
224,      24,     229
225,      25,     230
226,      26,     231
227,      27,     232
228,      28,     233
229,      29,     234
230,      30,     235
231,      31,     236
232,      32,     237
233,      33,     238
234,      34,     239
235,      35,     240
236,      36,     241
237,      37,     242
238,      38,     243
239,      39,     244
240,      40,     245
241,      41,     246
242,      42,     247
243,      44,     248
244,      43,     249
245,      45,     250
246,      46,     251
247,      47,     252
248,      48,     253
249,      49,     254
250,      50,     255
251,      51,     256
252,      52,     257
253,      53,     258
254,      54,     259
255,      55,     260
256,      56,     261
257,      57,     262
258,      58,     263
259,      59,     264
260,      60,     265
261,      61,     266
262,      62,     267
263,      63,     268
264,      64,     269
265,      65,     270
266,      66,     271
267,      67,     272
268,      68,     273
269,      69,     274
270,      70,     275
271,      71,     276
272,      72,     277
273,      73,     278
274,      74,     279
275,      75,     280
276,      76,     281
277,      77,     282
278,      78,     283
279,      79,     284
280,      80,     285
281,      81,     286
282,      82,     287
283,      83,     288
284,      85,     289
285,      84,     290
286,      86,     291
287,      87,     292
288,      88,     293
289,      89,     294
290,      90,     295
291,      91,     296
292,      92,     297
293,      93,     298
294,      94,     299
295,      95,     300
296,      96,     301
297,      97,     302
298,      98,     303
299,      99,     304
300,     100,     305
301,     101,     306
302,     102,     307
303,     103,     308
304,     104,     309
305,     105,     310
306,     106,     311
307,     107,     312
308,     108,     313
309,     109,     314
310,     110,     315
311,     111,     316
312,     112,     317
313,     113,     318
314,     114,     319
315,     115,     320
316,     116,     321
317,     117,     322
318,     118,     323
319,     119,     324
320,     120,     325
321,     121,     326
322,     122,     327
323,     123,     328
324,     124,     329
325,     126,     330
326,     125,     331
327,     127,     332
328,     128,     333
329,     129,     334
330,     130,     335
331,     131,     336
332,     132,     337
333,     133,     338
334,     134,     339
335,     135,     340
336,     136,     341
337,     137,     342
338,     138,     343
339,     139,     344
340,     140,     345
341,     141,     346
342,     142,     347
343,     143,     348
344,     144,     349
345,     145,     350
346,     146,     351
347,     147,     352
348,     148,     353
349,     149,     354
350,     150,     355
351,     151,     356
352,     152,     357
353,     153,     358
354,     154,     359
355,     155,     360
356,     156,     361
357,     157,     362
358,     158,     363
359,     159,     364
360,     160,     365
361,     161,     366
362,     162,     367
363,     163,     368
364,     164,     369
365,     165,     370
366,     167,     371
367,     166,     372
368,     168,     373
369,     169,     374
370,     170,     375
371,     171,     376
372,     172,     377
373,     173,     378
374,     174,     379
375,     175,     380
376,     176,     381
377,     177,     382
378,     178,     383
379,     179,     384
380,     180,     385
381,     181,     386
382,     182,     387
383,     183,     388
384,     184,     389
385,     185,     390
386,     186,     391
387,     187,     392
388,     188,     393
389,     189,     394
390,     190,     395
391,     191,     396
392,     192,     397
393,     193,     398
394,     194,     399
395,     195,     400
396,     196,     401
397,     197,     402
398,     198,     403
399,     199,     404
400,     200,     405
401,     201,     406
402,     202,     407
403,     203,     408
404,     204,     409
405,     205,     410

*ELEMENT,  TYPE=S4R
406,     411,     412,     413,     414
407,     415,     416,     417,     418
408,     412,     372,     370,     413
409,     416,     373,     371,     417
410,     372,     419,     420,     370
411,     373,     421,     422,     371
412,     419,     331,     329,     420
413,     421,     332,     330,     422
414,     331,     423,     424,     329
415,     332,     425,     426,     330
416,     423,     427,     428,     424
417,     425,     429,     430,     426
418,     427,     431,     432,     428
419,     429,     433,     434,     430
420,     431,     249,     247,     432
421,     433,     250,     248,     434
422,     249,     435,     436,     247
423,     250,     437,     438,     248
424,     435,     290,     288,     436
425,     437,     291,     289,     438
426,     290,     439,     440,     288
427,     291,     441,     442,     289
428,     439,     443,     444,     440
429,     441,     445,     446,     442
430,     447,     448,     412,     411
431,     449,     450,     416,     415
432,     448,     374,     372,     412
433,     450,     375,     373,     416
434,     374,     451,     419,     372
435,     375,     452,     421,     373
436,     451,     333,     331,     419
437,     452,     334,     332,     421
438,     333,     453,     423,     331
439,     334,     454,     425,     332
440,     453,     455,     427,     423
441,     454,     456,     429,     425
442,     455,     457,     431,     427
443,     456,     458,     433,     429
444,     457,     251,     249,     431
445,     458,     252,     250,     433
446,     251,     459,     435,     249
447,     252,     460,     437,     250
448,     459,     292,     290,     435
449,     460,     293,     291,     437
450,     292,     461,     439,     290
451,     293,     462,     441,     291
452,     461,     463,     443,     439
453,     462,     464,     445,     441
454,     465,     466,     448,     447
455,     467,     468,     450,     449
456,     466,     376,     374,     448
457,     468,     377,     375,     450
458,     376,     469,     451,     374
459,     377,     470,     452,     375
460,     469,     335,     333,     451
461,     470,     336,     334,     452
462,     335,     471,     453,     333
463,     336,     472,     454,     334
464,     471,     473,     455,     453
465,     472,     474,     456,     454
466,     473,     475,     457,     455
467,     474,     476,     458,     456
468,     475,     253,     251,     457
469,     476,     254,     252,     458
470,     253,     477,     459,     251
471,     254,     478,     460,     252
472,     477,     294,     292,     459
473,     478,     295,     293,     460
474,     294,     479,     461,     292
475,     295,     480,     462,     293
476,     479,     481,     463,     461
477,     480,     482,     464,     462
478,     483,     484,     466,     465
479,     485,     486,     468,     467
480,     484,     378,     376,     466
481,     486,     379,     377,     468
482,     378,     487,     469,     376
483,     379,     488,     470,     377
484,     487,     337,     335,     469
485,     488,     338,     336,     470
486,     337,     489,     471,     335
487,     338,     490,     472,     336
488,     489,     491,     473,     471
489,     490,     492,     474,     472
490,     491,     493,     475,     473
491,     492,     494,     476,     474
492,     493,     255,     253,     475
493,     494,     256,     254,     476
494,     255,     495,     477,     253
495,     256,     496,     478,     254
496,     495,     296,     294,     477
497,     496,     297,     295,     478
498,     296,     497,     479,     294
499,     297,     498,     480,     295
500,     497,     499,     481,     479
501,     498,     500,     482,     480
502,     501,     502,     484,     483
503,     503,     504,     486,     485
504,     502,     380,     378,     484
505,     504,     381,     379,     486
506,     380,     505,     487,     378
507,     381,     506,     488,     379
508,     505,     339,     337,     487
509,     506,     340,     338,     488
510,     339,     507,     489,     337
511,     340,     508,     490,     338
512,     507,     509,     491,     489
513,     508,     510,     492,     490
514,     509,     511,     493,     491
515,     510,     512,     494,     492
516,     511,     257,     255,     493
517,     512,     258,     256,     494
518,     257,     513,     495,     255
519,     258,     514,     496,     256
520,     513,     298,     296,     495
521,     514,     299,     297,     496
522,     298,     515,     497,     296
523,     299,     516,     498,     297
524,     515,     517,     499,     497
525,     516,     518,     500,     498
526,     519,     520,     502,     501
527,     521,     522,     504,     503
528,     520,     382,     380,     502
529,     522,     383,     381,     504
530,     382,     523,     505,     380
531,     383,     524,     506,     381
532,     523,     341,     339,     505
533,     524,     342,     340,     506
534,     341,     525,     507,     339
535,     342,     526,     508,     340
536,     525,     527,     509,     507
537,     526,     528,     510,     508
538,     527,     529,     511,     509
539,     528,     530,     512,     510
540,     529,     259,     257,     511
541,     530,     260,     258,     512
542,     259,     531,     513,     257
543,     260,     532,     514,     258
544,     531,     300,     298,     513
545,     532,     301,     299,     514
546,     300,     533,     515,     298
547,     301,     534,     516,     299
548,     533,     535,     517,     515
549,     534,     536,     518,     516
550,     537,     538,     520,     519
551,     539,     540,     522,     521
552,     538,     384,     382,     520
553,     540,     385,     383,     522
554,     384,     541,     523,     382
555,     385,     542,     524,     383
556,     541,     343,     341,     523
557,     542,     344,     342,     524
558,     343,     543,     525,     341
559,     344,     544,     526,     342
560,     543,     545,     527,     525
561,     544,     546,     528,     526
562,     545,     547,     529,     527
563,     546,     548,     530,     528
564,     547,     261,     259,     529
565,     548,     262,     260,     530
566,     261,     549,     531,     259
567,     262,     550,     532,     260
568,     549,     302,     300,     531
569,     550,     303,     301,     532
570,     302,     551,     533,     300
571,     303,     552,     534,     301
572,     551,     553,     535,     533
573,     552,     554,     536,     534
574,     555,     556,     538,     537
575,     557,     558,     540,     539
576,     556,     386,     384,     538
577,     558,     387,     385,     540
578,     386,     559,     541,     384
579,     387,     560,     542,     385
580,     559,     345,     343,     541
581,     560,     346,     344,     542
582,     345,     561,     543,     343
583,     346,     562,     544,     344
584,     561,     563,     545,     543
585,     562,     564,     546,     544
586,     563,     565,     547,     545
587,     564,     566,     548,     546
588,     565,     263,     261,     547
589,     566,     264,     262,     548
590,     263,     567,     549,     261
591,     264,     568,     550,     262
592,     567,     304,     302,     549
593,     568,     305,     303,     550
594,     304,     569,     551,     302
595,     305,     570,     552,     303
596,     569,     571,     553,     551
597,     570,     572,     554,     552
598,     573,     574,     556,     555
599,     575,     576,     558,     557
600,     574,     388,     386,     556
601,     576,     389,     387,     558
602,     388,     577,     559,     386
603,     389,     578,     560,     387
604,     577,     347,     345,     559
605,     578,     348,     346,     560
606,     347,     579,     561,     345
607,     348,     580,     562,     346
608,     579,     581,     563,     561
609,     580,     582,     564,     562
610,     581,     583,     565,     563
611,     582,     584,     566,     564
612,     583,     265,     263,     565
613,     584,     266,     264,     566
614,     265,     585,     567,     263
615,     266,     586,     568,     264
616,     585,     306,     304,     567
617,     586,     307,     305,     568
618,     306,     587,     569,     304
619,     307,     588,     570,     305
620,     587,     589,     571,     569
621,     588,     590,     572,     570
622,     591,     592,     574,     573
623,     593,     594,     576,     575
624,     592,     390,     388,     574
625,     594,     391,     389,     576
626,     390,     595,     577,     388
627,     391,     596,     578,     389
628,     595,     349,     347,     577
629,     596,     350,     348,     578
630,     349,     597,     579,     347
631,     350,     598,     580,     348
632,     597,     599,     581,     579
633,     598,     600,     582,     580
634,     599,     601,     583,     581
635,     600,     602,     584,     582
636,     601,     267,     265,     583
637,     602,     268,     266,     584
638,     267,     603,     585,     265
639,     268,     604,     586,     266
640,     603,     308,     306,     585
641,     604,     309,     307,     586
642,     308,     605,     587,     306
643,     309,     606,     588,     307
644,     605,     607,     589,     587
645,     606,     608,     590,     588
646,     609,     610,     592,     591
647,     611,     612,     594,     593
648,     610,     392,     390,     592
649,     612,     393,     391,     594
650,     392,     613,     595,     390
651,     393,     614,     596,     391
652,     613,     351,     349,     595
653,     614,     352,     350,     596
654,     351,     615,     597,     349
655,     352,     616,     598,     350
656,     615,     617,     599,     597
657,     616,     618,     600,     598
658,     617,     619,     601,     599
659,     618,     620,     602,     600
660,     619,     269,     267,     601
661,     620,     270,     268,     602
662,     269,     621,     603,     267
663,     270,     622,     604,     268
664,     621,     310,     308,     603
665,     622,     311,     309,     604
666,     310,     623,     605,     308
667,     311,     624,     606,     309
668,     623,     625,     607,     605
669,     624,     626,     608,     606
670,     627,     628,     610,     609
671,     629,     630,     612,     611
672,     628,     394,     392,     610
673,     630,     395,     393,     612
674,     394,     631,     613,     392
675,     395,     632,     614,     393
676,     631,     353,     351,     613
677,     632,     354,     352,     614
678,     353,     633,     615,     351
679,     354,     634,     616,     352
680,     633,     635,     617,     615
681,     634,     636,     618,     616
682,     635,     637,     619,     617
683,     636,     638,     620,     618
684,     637,     271,     269,     619
685,     638,     272,     270,     620
686,     271,     639,     621,     269
687,     272,     640,     622,     270
688,     639,     312,     310,     621
689,     640,     313,     311,     622
690,     312,     641,     623,     310
691,     313,     642,     624,     311
692,     641,     643,     625,     623
693,     642,     644,     626,     624
694,     645,     646,     628,     627
695,     647,     648,     630,     629
696,     646,     396,     394,     628
697,     648,     397,     395,     630
698,     396,     649,     631,     394
699,     397,     650,     632,     395
700,     649,     355,     353,     631
701,     650,     356,     354,     632
702,     355,     651,     633,     353
703,     356,     652,     634,     354
704,     651,     653,     635,     633
705,     652,     654,     636,     634
706,     653,     655,     637,     635
707,     654,     656,     638,     636
708,     655,     273,     271,     637
709,     656,     274,     272,     638
710,     273,     657,     639,     271
711,     274,     658,     640,     272
712,     657,     314,     312,     639
713,     658,     315,     313,     640
714,     314,     659,     641,     312
715,     315,     660,     642,     313
716,     659,     661,     643,     641
717,     660,     662,     644,     642
718,     663,     664,     646,     645
719,     665,     666,     648,     647
720,     664,     398,     396,     646
721,     666,     399,     397,     648
722,     398,     667,     649,     396
723,     399,     668,     650,     397
724,     667,     357,     355,     649
725,     668,     358,     356,     650
726,     357,     669,     651,     355
727,     358,     670,     652,     356
728,     669,     671,     653,     651
729,     670,     672,     654,     652
730,     671,     673,     655,     653
731,     672,     674,     656,     654
732,     673,     275,     273,     655
733,     674,     276,     274,     656
734,     275,     675,     657,     273
735,     276,     676,     658,     274
736,     675,     316,     314,     657
737,     676,     317,     315,     658
738,     316,     677,     659,     314
739,     317,     678,     660,     315
740,     677,     679,     661,     659
741,     678,     680,     662,     660
742,     681,     682,     664,     663
743,     683,     684,     666,     665
744,     682,     400,     398,     664
745,     684,     401,     399,     666
746,     400,     685,     667,     398
747,     401,     686,     668,     399
748,     685,     359,     357,     667
749,     686,     360,     358,     668
750,     359,     687,     669,     357
751,     360,     688,     670,     358
752,     687,     689,     671,     669
753,     688,     690,     672,     670
754,     689,     691,     673,     671
755,     690,     692,     674,     672
756,     691,     277,     275,     673
757,     692,     278,     276,     674
758,     277,     693,     675,     275
759,     278,     694,     676,     276
760,     693,     318,     316,     675
761,     694,     319,     317,     676
762,     318,     695,     677,     316
763,     319,     696,     678,     317
764,     695,     697,     679,     677
765,     696,     698,     680,     678
766,     699,     700,     682,     681
767,     701,     702,     684,     683
768,     700,     402,     400,     682
769,     702,     403,     401,     684
770,     402,     703,     685,     400
771,     403,     704,     686,     401
772,     703,     361,     359,     685
773,     704,     362,     360,     686
774,     361,     705,     687,     359
775,     362,     706,     688,     360
776,     705,     707,     689,     687
777,     706,     708,     690,     688
778,     707,     709,     691,     689
779,     708,     710,     692,     690
780,     709,     279,     277,     691
781,     710,     280,     278,     692
782,     279,     711,     693,     277
783,     280,     712,     694,     278
784,     711,     320,     318,     693
785,     712,     321,     319,     694
786,     320,     713,     695,     318
787,     321,     714,     696,     319
788,     713,     715,     697,     695
789,     714,     716,     698,     696
790,     717,     718,     700,     699
791,     719,     720,     702,     701
792,     718,     404,     402,     700
793,     720,     405,     403,     702
794,     404,     721,     703,     402
795,     405,     722,     704,     403
796,     721,     363,     361,     703
797,     722,     364,     362,     704
798,     363,     723,     705,     361
799,     364,     724,     706,     362
800,     723,     725,     707,     705
801,     724,     726,     708,     706
802,     725,     727,     709,     707
803,     726,     728,     710,     708
804,     727,     281,     279,     709
805,     728,     282,     280,     710
806,     281,     729,     711,     279
807,     282,     730,     712,     280
808,     729,     322,     320,     711
809,     730,     323,     321,     712
810,     322,     731,     713,     320
811,     323,     732,     714,     321
812,     731,     733,     715,     713
813,     732,     734,     716,     714
814,     735,     736,     718,     717
815,     737,     738,     720,     719
816,     736,     406,     404,     718
817,     738,     407,     405,     720
818,     406,     739,     721,     404
819,     407,     740,     722,     405
820,     739,     365,     363,     721
821,     740,     366,     364,     722
822,     365,     741,     723,     363
823,     366,     742,     724,     364
824,     741,     743,     725,     723
825,     742,     744,     726,     724
826,     743,     745,     727,     725
827,     744,     746,     728,     726
828,     745,     283,     281,     727
829,     746,     284,     282,     728
830,     283,     747,     729,     281
831,     284,     748,     730,     282
832,     747,     324,     322,     729
833,     748,     325,     323,     730
834,     324,     749,     731,     322
835,     325,     750,     732,     323
836,     749,     751,     733,     731
837,     750,     752,     734,     732
838,     753,     754,     736,     735
839,     755,     756,     738,     737
840,     754,     408,     406,     736
841,     756,     409,     407,     738
842,     408,     757,     739,     406
843,     409,     758,     740,     407
844,     757,     367,     365,     739
845,     758,     368,     366,     740
846,     367,     759,     741,     365
847,     368,     760,     742,     366
848,     759,     761,     743,     741
849,     760,     762,     744,     742
850,     761,     763,     745,     743
851,     762,     764,     746,     744
852,     763,     285,     283,     745
853,     764,     286,     284,     746
854,     285,     765,     747,     283
855,     286,     766,     748,     284
856,     765,     326,     324,     747
857,     766,     327,     325,     748
858,     326,     767,     749,     324
859,     327,     768,     750,     325
860,     767,     769,     751,     749
861,     768,     770,     752,     750
862,     418,     417,     754,     753
863,     771,     772,     756,     755
864,     417,     371,     408,     754
865,     772,     410,     409,     756
866,     371,     422,     757,     408
867,     410,     773,     758,     409
868,     422,     330,     367,     757
869,     773,     369,     368,     758
870,     330,     426,     759,     367
871,     369,     774,     760,     368
872,     426,     430,     761,     759
873,     774,     775,     762,     760
874,     430,     434,     763,     761
875,     775,     776,     764,     762
876,     434,     248,     285,     763
877,     776,     287,     286,     764
878,     248,     438,     765,     285
879,     287,     777,     766,     286
880,     438,     289,     326,     765
881,     777,     328,     327,     766
882,     289,     442,     767,     326
883,     328,     778,     768,     327
884,     442,     446,     769,     767
885,     778,     779,     770,     768


*ELSET, ELSET=set0
   1,    2,    3,    4,    5,    6,    7,    8,    9,   10,   11,   12,   13,   14,   15,   16
  17,   18,   19,   20,   21,   22,   23,   24,   25,   26,   27,   28,   29,   30,   31,   32
  33,   34,   35,   36,   37,   38,   39,   40,   41,   42,   43,   44,   45,   46,   47,   48
  49,   50,   51,   52,   53,   54,   55,   56,   57,   58,   59,   60,   61,   62,   63,   64
  65,   66,   67,   68,   69,   70,   71,   72,   73,   74,   75,   76,   77,   78,   79,   80
  81,   82,   83,   84,   85,   86,   87,   88,   89,   90,   91,   92,   93,   94,   95,   96
  97,   98,   99,  100,  101,  102,  103,  104,  105,  106,  107,  108,  109,  110,  111,  112
 113,  114,  115,  116,  117,  118,  119,  120,  121,  122,  123,  124,  125,  126,  127,  128
 129,  130,  131,  132,  133,  134,  135,  136,  137,  138,  139,  140,  141,  142,  143,  144
 145,  146,  147,  148,  149,  150,  151,  152,  153,  154,  155,  156,  157,  158,  159,  160
 161,  162,  163,  164,  165,  166,  167,  168,  169,  170,  171,  172,  173,  174,  175,  176
 177,  178,  179,  180,  181,  182,  183,  184,  185,  186,  187,  188,  189,  190,  191,  192
 193,  194,  195,  196,  197,  198,  199,  200

** Section: I-ShapeGirders_S355  Profile: I-ShapeGirders_S355
*Beam General Section, elset=set0, material=S355, section=I
200.0, 1200.0, 500.0, 500.0, 25.0, 25.0, 16.0
0.0, 1.0, 0.0

*ELSET, ELSET=set1
 201,  202,  203,  204,  205,  206,  207,  208,  209,  210,  211,  212,  213,  214,  215,  216
 217,  218,  219,  220,  221,  222,  223,  224,  225,  226,  227,  228,  229,  230,  231,  232
 233,  234,  235,  236,  237,  238,  239,  240,  241,  242,  243,  244,  245,  246,  247,  248
 249,  250,  251,  252,  253,  254,  255,  256,  257,  258,  259,  260,  261,  262,  263,  264
 265,  266,  267,  268,  269,  270,  271,  272,  273,  274,  275,  276,  277,  278,  279,  280
 281,  282,  283,  284,  285,  286,  287,  288,  289,  290,  291,  292,  293,  294,  295,  296
 297,  298,  299,  300,  301,  302,  303,  304,  305,  306,  307,  308,  309,  310,  311,  312
 313,  314,  315,  316,  317,  318,  319,  320,  321,  322,  323,  324,  325,  326,  327,  328
 329,  330,  331,  332,  333,  334,  335,  336,  337,  338,  339,  340,  341,  342,  343,  344
 345,  346,  347,  348,  349,  350,  351,  352,  353,  354,  355,  356,  357,  358,  359,  360
 361,  362,  363,  364,  365,  366,  367,  368,  369,  370,  371,  372,  373,  374,  375,  376
 377,  378,  379,  380,  381,  382,  383,  384,  385,  386,  387,  388,  389,  390,  391,  392
 393,  394,  395,  396,  397,  398,  399,  400,  401,  402,  403,  404,  405

** Section: Rigid_Rigid  Profile: Rigid_Rigid
*Beam General Section, elset=set1, material=Rigid, section=RECT
100.0, 100.0
1.0, 0.0, 0.0

*ELSET, ELSET=set2
 406,  407,  408,  409,  410,  411,  412,  413,  414,  415,  416,  417,  418,  419,  420,  421
 422,  423,  424,  425,  426,  427,  428,  429,  430,  431,  432,  433,  434,  435,  436,  437
 438,  439,  440,  441,  442,  443,  444,  445,  446,  447,  448,  449,  450,  451,  452,  453
 454,  455,  456,  457,  458,  459,  460,  461,  462,  463,  464,  465,  466,  467,  468,  469
 470,  471,  472,  473,  474,  475,  476,  477,  478,  479,  480,  481,  482,  483,  484,  485
 486,  487,  488,  489,  490,  491,  492,  493,  494,  495,  496,  497,  498,  499,  500,  501
 502,  503,  504,  505,  506,  507,  508,  509,  510,  511,  512,  513,  514,  515,  516,  517
 518,  519,  520,  521,  522,  523,  524,  525,  526,  527,  528,  529,  530,  531,  532,  533
 534,  535,  536,  537,  538,  539,  540,  541,  542,  543,  544,  545,  546,  547,  548,  549
 550,  551,  552,  553,  554,  555,  556,  557,  558,  559,  560,  561,  562,  563,  564,  565
 566,  567,  568,  569,  570,  571,  572,  573,  574,  575,  576,  577,  578,  579,  580,  581
 582,  583,  584,  585,  586,  587,  588,  589,  590,  591,  592,  593,  594,  595,  596,  597
 598,  599,  600,  601,  602,  603,  604,  605,  606,  607,  608,  609,  610,  611,  612,  613
 614,  615,  616,  617,  618,  619,  620,  621,  622,  623,  624,  625,  626,  627,  628,  629
 630,  631,  632,  633,  634,  635,  636,  637,  638,  639,  640,  641,  642,  643,  644,  645
 646,  647,  648,  649,  650,  651,  652,  653,  654,  655,  656,  657,  658,  659,  660,  661
 662,  663,  664,  665,  666,  667,  668,  669,  670,  671,  672,  673,  674,  675,  676,  677
 678,  679,  680,  681,  682,  683,  684,  685,  686,  687,  688,  689,  690,  691,  692,  693
 694,  695,  696,  697,  698,  699,  700,  701,  702,  703,  704,  705,  706,  707,  708,  709
 710,  711,  712,  713,  714,  715,  716,  717,  718,  719,  720,  721,  722,  723,  724,  725
 726,  727,  728,  729,  730,  731,  732,  733,  734,  735,  736,  737,  738,  739,  740,  741
 742,  743,  744,  745,  746,  747,  748,  749,  750,  751,  752,  753,  754,  755,  756,  757
 758,  759,  760,  761,  762,  763,  764,  765,  766,  767,  768,  769,  770,  771,  772,  773
 774,  775,  776,  777,  778,  779,  780,  781,  782,  783,  784,  785,  786,  787,  788,  789
 790,  791,  792,  793,  794,  795,  796,  797,  798,  799,  800,  801,  802,  803,  804,  805
 806,  807,  808,  809,  810,  811,  812,  813,  814,  815,  816,  817,  818,  819,  820,  821
 822,  823,  824,  825,  826,  827,  828,  829,  830,  831,  832,  833,  834,  835,  836,  837
 838,  839,  840,  841,  842,  843,  844,  845,  846,  847,  848,  849,  850,  851,  852,  853
 854,  855,  856,  857,  858,  859,  860,  861,  862,  863,  864,  865,  866,  867,  868,  869
 870,  871,  872,  873,  874,  875,  876,  877,  878,  879,  880,  881,  882,  883,  884,  885

*Shell Section, ELSET=set2, MATERIAL=C40/50
200.0

*End Part

*ASSEMBLY, NAME=CompisteIGriderBridgeSpans2_SA

*INSTANCE, NAME=CompisteIGriderBridgeSpans2_SA-1, PART=CompisteIGriderBridgeSpans2_SA

*END INSTANCE


*END ASSEMBLY

**
** MATERIALS
**
*Material, name=C40/50
*Density
2.5e-09,
*Elastic
35000.0, 0.2
*Material, name=S355
*Density
7.8e-09,
*Elastic
210000.0, 0.3
*Material, name=Rigid
*Elastic
100000000.0, 0.0
**
** BOUNDARY CONDITIONS
**

*Step, name=Step-1, nlgeom=NO, inc=5
*Static, direct
0.2, 1.,
**
** OUTPUT REQUESTS
**
*RESTART, WRITE, FREQUENCY=0
*OUTPUT, FIELD, VARIABLE=PRESELECT
*OUTPUT, HISTORY, VARIABLE=PRESELECT
*END STEP
