*Heading
** Generated by OSAM INP Converter

*Part, name=CompisteIGriderBridgeSpans5_SA

*NODE
1,           0, -3.3975e-13,-1.43894e-12
2,        1000, -3.3975e-13,-1.43894e-12
3,       20000, -3.3975e-13,-1.43894e-12
4,       21000, -3.3975e-13,-1.43894e-12
5,       40000, -3.3975e-13,-1.43894e-12
6,       41000, -3.3975e-13,-1.43894e-12
7,       60000, -3.3975e-13,-1.43894e-12
8,       61000, -3.3975e-13,-1.43894e-12
9,       80000, -3.3975e-13,-1.43894e-12
10,       81000, -3.3975e-13,-1.43894e-12
11,        2000, -3.3975e-13,-1.43894e-12
12,       22000, -3.3975e-13,-1.43894e-12
13,       42000, -3.3975e-13,-1.43894e-12
14,       62000, -3.3975e-13,-1.43894e-12
15,       82000, -3.3975e-13,-1.43894e-12
16,        3000, -3.3975e-13,-1.43894e-12
17,       23000, -3.3975e-13,-1.43894e-12
18,       43000, -3.3975e-13,-1.43894e-12
19,       63000, -3.3975e-13,-1.43894e-12
20,       83000, -3.3975e-13,-1.43894e-12
21,        4000, -3.3975e-13,-1.43894e-12
22,       24000, -3.3975e-13,-1.43894e-12
23,       44000, -3.3975e-13,-1.43894e-12
24,       64000, -3.3975e-13,-1.43894e-12
25,       84000, -3.3975e-13,-1.43894e-12
26,        5000, -3.3975e-13,-1.43894e-12
27,       25000, -3.3975e-13,-1.43894e-12
28,       45000, -3.3975e-13,-1.43894e-12
29,       65000, -3.3975e-13,-1.43894e-12
30,       85000, -3.3975e-13,-1.43894e-12
31,        6000, -3.3975e-13,-1.43894e-12
32,       26000, -3.3975e-13,-1.43894e-12
33,       46000, -3.3975e-13,-1.43894e-12
34,       66000, -3.3975e-13,-1.43894e-12
35,       86000, -3.3975e-13,-1.43894e-12
36,        7000, -3.3975e-13,-1.43894e-12
37,       27000, -3.3975e-13,-1.43894e-12
38,       47000, -3.3975e-13,-1.43894e-12
39,       67000, -3.3975e-13,-1.43894e-12
40,       87000, -3.3975e-13,-1.43894e-12
41,        8000, -3.3975e-13,-1.43894e-12
42,       28000, -3.3975e-13,-1.43894e-12
43,       48000, -3.3975e-13,-1.43894e-12
44,       68000, -3.3975e-13,-1.43894e-12
45,       88000, -3.3975e-13,-1.43894e-12
46,        9000, -3.3975e-13,-1.43894e-12
47,       29000, -3.3975e-13,-1.43894e-12
48,       49000, -3.3975e-13,-1.43894e-12
49,       69000, -3.3975e-13,-1.43894e-12
50,       89000, -3.3975e-13,-1.43894e-12
51,       10000, -3.3975e-13,-1.43894e-12
52,       30000, -3.3975e-13,-1.43894e-12
53,       50000, -3.3975e-13,-1.43894e-12
54,       70000, -3.3975e-13,-1.43894e-12
55,       90000, -3.3975e-13,-1.43894e-12
56,       11000, -3.3975e-13,-1.43894e-12
57,       31000, -3.3975e-13,-1.43894e-12
58,       51000, -3.3975e-13,-1.43894e-12
59,       71000, -3.3975e-13,-1.43894e-12
60,       91000, -3.3975e-13,-1.43894e-12
61,       12000, -3.3975e-13,-1.43894e-12
62,       32000, -3.3975e-13,-1.43894e-12
63,       52000, -3.3975e-13,-1.43894e-12
64,       72000, -3.3975e-13,-1.43894e-12
65,       92000, -3.3975e-13,-1.43894e-12
66,       13000, -3.3975e-13,-1.43894e-12
67,       33000, -3.3975e-13,-1.43894e-12
68,       53000, -3.3975e-13,-1.43894e-12
69,       73000, -3.3975e-13,-1.43894e-12
70,       93000, -3.3975e-13,-1.43894e-12
71,       14000, -3.3975e-13,-1.43894e-12
72,       34000, -3.3975e-13,-1.43894e-12
73,       54000, -3.3975e-13,-1.43894e-12
74,       74000, -3.3975e-13,-1.43894e-12
75,       94000, -3.3975e-13,-1.43894e-12
76,       15000, -3.3975e-13,-1.43894e-12
77,       35000, -3.3975e-13,-1.43894e-12
78,       55000, -3.3975e-13,-1.43894e-12
79,       75000, -3.3975e-13,-1.43894e-12
80,       95000, -3.3975e-13,-1.43894e-12
81,       16000, -3.3975e-13,-1.43894e-12
82,       36000, -3.3975e-13,-1.43894e-12
83,       56000, -3.3975e-13,-1.43894e-12
84,       76000, -3.3975e-13,-1.43894e-12
85,       96000, -3.3975e-13,-1.43894e-12
86,       17000, -3.3975e-13,-1.43894e-12
87,       37000, -3.3975e-13,-1.43894e-12
88,       57000, -3.3975e-13,-1.43894e-12
89,       77000, -3.3975e-13,-1.43894e-12
90,       97000, -3.3975e-13,-1.43894e-12
91,       18000, -3.3975e-13,-1.43894e-12
92,       38000, -3.3975e-13,-1.43894e-12
93,       58000, -3.3975e-13,-1.43894e-12
94,       78000, -3.3975e-13,-1.43894e-12
95,       98000, -3.3975e-13,-1.43894e-12
96,       19000, -3.3975e-13,-1.43894e-12
97,       39000, -3.3975e-13,-1.43894e-12
98,       59000, -3.3975e-13,-1.43894e-12
99,       79000, -3.3975e-13,-1.43894e-12
100,       99000, -3.3975e-13,-1.43894e-12
101,      100000, -3.3975e-13,-1.43894e-12
102,           0,        2100,-1.43894e-12
103,        1000,        2100,-1.43894e-12
104,       20000,        2100,-1.43894e-12
105,       21000,        2100,-1.43894e-12
106,       40000,        2100,-1.43894e-12
107,       41000,        2100,-1.43894e-12
108,       60000,        2100,-1.43894e-12
109,       61000,        2100,-1.43894e-12
110,       80000,        2100,-1.43894e-12
111,       81000,        2100,-1.43894e-12
112,        2000,        2100,-1.43894e-12
113,       22000,        2100,-1.43894e-12
114,       42000,        2100,-1.43894e-12
115,       62000,        2100,-1.43894e-12
116,       82000,        2100,-1.43894e-12
117,        3000,        2100,-1.43894e-12
118,       23000,        2100,-1.43894e-12
119,       43000,        2100,-1.43894e-12
120,       63000,        2100,-1.43894e-12
121,       83000,        2100,-1.43894e-12
122,        4000,        2100,-1.43894e-12
123,       24000,        2100,-1.43894e-12
124,       44000,        2100,-1.43894e-12
125,       64000,        2100,-1.43894e-12
126,       84000,        2100,-1.43894e-12
127,        5000,        2100,-1.43894e-12
128,       25000,        2100,-1.43894e-12
129,       45000,        2100,-1.43894e-12
130,       65000,        2100,-1.43894e-12
131,       85000,        2100,-1.43894e-12
132,        6000,        2100,-1.43894e-12
133,       26000,        2100,-1.43894e-12
134,       46000,        2100,-1.43894e-12
135,       66000,        2100,-1.43894e-12
136,       86000,        2100,-1.43894e-12
137,        7000,        2100,-1.43894e-12
138,       27000,        2100,-1.43894e-12
139,       47000,        2100,-1.43894e-12
140,       67000,        2100,-1.43894e-12
141,       87000,        2100,-1.43894e-12
142,        8000,        2100,-1.43894e-12
143,       28000,        2100,-1.43894e-12
144,       48000,        2100,-1.43894e-12
145,       68000,        2100,-1.43894e-12
146,       88000,        2100,-1.43894e-12
147,        9000,        2100,-1.43894e-12
148,       29000,        2100,-1.43894e-12
149,       49000,        2100,-1.43894e-12
150,       69000,        2100,-1.43894e-12
151,       89000,        2100,-1.43894e-12
152,       10000,        2100,-1.43894e-12
153,       30000,        2100,-1.43894e-12
154,       50000,        2100,-1.43894e-12
155,       70000,        2100,-1.43894e-12
156,       90000,        2100,-1.43894e-12
157,       11000,        2100,-1.43894e-12
158,       31000,        2100,-1.43894e-12
159,       51000,        2100,-1.43894e-12
160,       71000,        2100,-1.43894e-12
161,       91000,        2100,-1.43894e-12
162,       12000,        2100,-1.43894e-12
163,       32000,        2100,-1.43894e-12
164,       52000,        2100,-1.43894e-12
165,       72000,        2100,-1.43894e-12
166,       92000,        2100,-1.43894e-12
167,       13000,        2100,-1.43894e-12
168,       33000,        2100,-1.43894e-12
169,       53000,        2100,-1.43894e-12
170,       73000,        2100,-1.43894e-12
171,       93000,        2100,-1.43894e-12
172,       14000,        2100,-1.43894e-12
173,       34000,        2100,-1.43894e-12
174,       54000,        2100,-1.43894e-12
175,       74000,        2100,-1.43894e-12
176,       94000,        2100,-1.43894e-12
177,       15000,        2100,-1.43894e-12
178,       35000,        2100,-1.43894e-12
179,       55000,        2100,-1.43894e-12
180,       75000,        2100,-1.43894e-12
181,       95000,        2100,-1.43894e-12
182,       16000,        2100,-1.43894e-12
183,       36000,        2100,-1.43894e-12
184,       56000,        2100,-1.43894e-12
185,       76000,        2100,-1.43894e-12
186,       96000,        2100,-1.43894e-12
187,       17000,        2100,-1.43894e-12
188,       37000,        2100,-1.43894e-12
189,       57000,        2100,-1.43894e-12
190,       77000,        2100,-1.43894e-12
191,       97000,        2100,-1.43894e-12
192,       18000,        2100,-1.43894e-12
193,       38000,        2100,-1.43894e-12
194,       58000,        2100,-1.43894e-12
195,       78000,        2100,-1.43894e-12
196,       98000,        2100,-1.43894e-12
197,       19000,        2100,-1.43894e-12
198,       39000,        2100,-1.43894e-12
199,       59000,        2100,-1.43894e-12
200,       79000,        2100,-1.43894e-12
201,       99000,        2100,-1.43894e-12
202,      100000,        2100,-1.43894e-12
203,           0,        4200,-1.43894e-12
204,        1000,        4200,-1.43894e-12
205,       20000,        4200,-1.43894e-12
206,       21000,        4200,-1.43894e-12
207,       40000,        4200,-1.43894e-12
208,       41000,        4200,-1.43894e-12
209,       60000,        4200,-1.43894e-12
210,       61000,        4200,-1.43894e-12
211,       80000,        4200,-1.43894e-12
212,       81000,        4200,-1.43894e-12
213,        2000,        4200,-1.43894e-12
214,       22000,        4200,-1.43894e-12
215,       42000,        4200,-1.43894e-12
216,       62000,        4200,-1.43894e-12
217,       82000,        4200,-1.43894e-12
218,        3000,        4200,-1.43894e-12
219,       23000,        4200,-1.43894e-12
220,       43000,        4200,-1.43894e-12
221,       63000,        4200,-1.43894e-12
222,       83000,        4200,-1.43894e-12
223,        4000,        4200,-1.43894e-12
224,       24000,        4200,-1.43894e-12
225,       44000,        4200,-1.43894e-12
226,       64000,        4200,-1.43894e-12
227,       84000,        4200,-1.43894e-12
228,        5000,        4200,-1.43894e-12
229,       25000,        4200,-1.43894e-12
230,       45000,        4200,-1.43894e-12
231,       65000,        4200,-1.43894e-12
232,       85000,        4200,-1.43894e-12
233,        6000,        4200,-1.43894e-12
234,       26000,        4200,-1.43894e-12
235,       46000,        4200,-1.43894e-12
236,       66000,        4200,-1.43894e-12
237,       86000,        4200,-1.43894e-12
238,        7000,        4200,-1.43894e-12
239,       27000,        4200,-1.43894e-12
240,       47000,        4200,-1.43894e-12
241,       67000,        4200,-1.43894e-12
242,       87000,        4200,-1.43894e-12
243,        8000,        4200,-1.43894e-12
244,       28000,        4200,-1.43894e-12
245,       48000,        4200,-1.43894e-12
246,       68000,        4200,-1.43894e-12
247,       88000,        4200,-1.43894e-12
248,        9000,        4200,-1.43894e-12
249,       29000,        4200,-1.43894e-12
250,       49000,        4200,-1.43894e-12
251,       69000,        4200,-1.43894e-12
252,       89000,        4200,-1.43894e-12
253,       10000,        4200,-1.43894e-12
254,       30000,        4200,-1.43894e-12
255,       50000,        4200,-1.43894e-12
256,       70000,        4200,-1.43894e-12
257,       90000,        4200,-1.43894e-12
258,       11000,        4200,-1.43894e-12
259,       31000,        4200,-1.43894e-12
260,       51000,        4200,-1.43894e-12
261,       71000,        4200,-1.43894e-12
262,       91000,        4200,-1.43894e-12
263,       12000,        4200,-1.43894e-12
264,       32000,        4200,-1.43894e-12
265,       52000,        4200,-1.43894e-12
266,       72000,        4200,-1.43894e-12
267,       92000,        4200,-1.43894e-12
268,       13000,        4200,-1.43894e-12
269,       33000,        4200,-1.43894e-12
270,       53000,        4200,-1.43894e-12
271,       73000,        4200,-1.43894e-12
272,       93000,        4200,-1.43894e-12
273,       14000,        4200,-1.43894e-12
274,       34000,        4200,-1.43894e-12
275,       54000,        4200,-1.43894e-12
276,       74000,        4200,-1.43894e-12
277,       94000,        4200,-1.43894e-12
278,       15000,        4200,-1.43894e-12
279,       35000,        4200,-1.43894e-12
280,       55000,        4200,-1.43894e-12
281,       75000,        4200,-1.43894e-12
282,       95000,        4200,-1.43894e-12
283,       16000,        4200,-1.43894e-12
284,       36000,        4200,-1.43894e-12
285,       56000,        4200,-1.43894e-12
286,       76000,        4200,-1.43894e-12
287,       96000,        4200,-1.43894e-12
288,       17000,        4200,-1.43894e-12
289,       37000,        4200,-1.43894e-12
290,       57000,        4200,-1.43894e-12
291,       77000,        4200,-1.43894e-12
292,       97000,        4200,-1.43894e-12
293,       18000,        4200,-1.43894e-12
294,       38000,        4200,-1.43894e-12
295,       58000,        4200,-1.43894e-12
296,       78000,        4200,-1.43894e-12
297,       98000,        4200,-1.43894e-12
298,       19000,        4200,-1.43894e-12
299,       39000,        4200,-1.43894e-12
300,       59000,        4200,-1.43894e-12
301,       79000,        4200,-1.43894e-12
302,       99000,        4200,-1.43894e-12
303,      100000,        4200,-1.43894e-12
304,           0,       -2100,-1.43894e-12
305,        1000,       -2100,-1.43894e-12
306,       20000,       -2100,-1.43894e-12
307,       21000,       -2100,-1.43894e-12
308,       40000,       -2100,-1.43894e-12
309,       41000,       -2100,-1.43894e-12
310,       60000,       -2100,-1.43894e-12
311,       61000,       -2100,-1.43894e-12
312,       80000,       -2100,-1.43894e-12
313,       81000,       -2100,-1.43894e-12
314,        2000,       -2100,-1.43894e-12
315,       22000,       -2100,-1.43894e-12
316,       42000,       -2100,-1.43894e-12
317,       62000,       -2100,-1.43894e-12
318,       82000,       -2100,-1.43894e-12
319,        3000,       -2100,-1.43894e-12
320,       23000,       -2100,-1.43894e-12
321,       43000,       -2100,-1.43894e-12
322,       63000,       -2100,-1.43894e-12
323,       83000,       -2100,-1.43894e-12
324,        4000,       -2100,-1.43894e-12
325,       24000,       -2100,-1.43894e-12
326,       44000,       -2100,-1.43894e-12
327,       64000,       -2100,-1.43894e-12
328,       84000,       -2100,-1.43894e-12
329,        5000,       -2100,-1.43894e-12
330,       25000,       -2100,-1.43894e-12
331,       45000,       -2100,-1.43894e-12
332,       65000,       -2100,-1.43894e-12
333,       85000,       -2100,-1.43894e-12
334,        6000,       -2100,-1.43894e-12
335,       26000,       -2100,-1.43894e-12
336,       46000,       -2100,-1.43894e-12
337,       66000,       -2100,-1.43894e-12
338,       86000,       -2100,-1.43894e-12
339,        7000,       -2100,-1.43894e-12
340,       27000,       -2100,-1.43894e-12
341,       47000,       -2100,-1.43894e-12
342,       67000,       -2100,-1.43894e-12
343,       87000,       -2100,-1.43894e-12
344,        8000,       -2100,-1.43894e-12
345,       28000,       -2100,-1.43894e-12
346,       48000,       -2100,-1.43894e-12
347,       68000,       -2100,-1.43894e-12
348,       88000,       -2100,-1.43894e-12
349,        9000,       -2100,-1.43894e-12
350,       29000,       -2100,-1.43894e-12
351,       49000,       -2100,-1.43894e-12
352,       69000,       -2100,-1.43894e-12
353,       89000,       -2100,-1.43894e-12
354,       10000,       -2100,-1.43894e-12
355,       30000,       -2100,-1.43894e-12
356,       50000,       -2100,-1.43894e-12
357,       70000,       -2100,-1.43894e-12
358,       90000,       -2100,-1.43894e-12
359,       11000,       -2100,-1.43894e-12
360,       31000,       -2100,-1.43894e-12
361,       51000,       -2100,-1.43894e-12
362,       71000,       -2100,-1.43894e-12
363,       91000,       -2100,-1.43894e-12
364,       12000,       -2100,-1.43894e-12
365,       32000,       -2100,-1.43894e-12
366,       52000,       -2100,-1.43894e-12
367,       72000,       -2100,-1.43894e-12
368,       92000,       -2100,-1.43894e-12
369,       13000,       -2100,-1.43894e-12
370,       33000,       -2100,-1.43894e-12
371,       53000,       -2100,-1.43894e-12
372,       73000,       -2100,-1.43894e-12
373,       93000,       -2100,-1.43894e-12
374,       14000,       -2100,-1.43894e-12
375,       34000,       -2100,-1.43894e-12
376,       54000,       -2100,-1.43894e-12
377,       74000,       -2100,-1.43894e-12
378,       94000,       -2100,-1.43894e-12
379,       15000,       -2100,-1.43894e-12
380,       35000,       -2100,-1.43894e-12
381,       55000,       -2100,-1.43894e-12
382,       75000,       -2100,-1.43894e-12
383,       95000,       -2100,-1.43894e-12
384,       16000,       -2100,-1.43894e-12
385,       36000,       -2100,-1.43894e-12
386,       56000,       -2100,-1.43894e-12
387,       76000,       -2100,-1.43894e-12
388,       96000,       -2100,-1.43894e-12
389,       17000,       -2100,-1.43894e-12
390,       37000,       -2100,-1.43894e-12
391,       57000,       -2100,-1.43894e-12
392,       77000,       -2100,-1.43894e-12
393,       97000,       -2100,-1.43894e-12
394,       18000,       -2100,-1.43894e-12
395,       38000,       -2100,-1.43894e-12
396,       58000,       -2100,-1.43894e-12
397,       78000,       -2100,-1.43894e-12
398,       98000,       -2100,-1.43894e-12
399,       19000,       -2100,-1.43894e-12
400,       39000,       -2100,-1.43894e-12
401,       59000,       -2100,-1.43894e-12
402,       79000,       -2100,-1.43894e-12
403,       99000,       -2100,-1.43894e-12
404,      100000,       -2100,-1.43894e-12
405,           0,       -4200,-1.43894e-12
406,        1000,       -4200,-1.43894e-12
407,       20000,       -4200,-1.43894e-12
408,       21000,       -4200,-1.43894e-12
409,       40000,       -4200,-1.43894e-12
410,       41000,       -4200,-1.43894e-12
411,       60000,       -4200,-1.43894e-12
412,       61000,       -4200,-1.43894e-12
413,       80000,       -4200,-1.43894e-12
414,       81000,       -4200,-1.43894e-12
415,        2000,       -4200,-1.43894e-12
416,       22000,       -4200,-1.43894e-12
417,       42000,       -4200,-1.43894e-12
418,       62000,       -4200,-1.43894e-12
419,       82000,       -4200,-1.43894e-12
420,        3000,       -4200,-1.43894e-12
421,       23000,       -4200,-1.43894e-12
422,       43000,       -4200,-1.43894e-12
423,       63000,       -4200,-1.43894e-12
424,       83000,       -4200,-1.43894e-12
425,        4000,       -4200,-1.43894e-12
426,       24000,       -4200,-1.43894e-12
427,       44000,       -4200,-1.43894e-12
428,       64000,       -4200,-1.43894e-12
429,       84000,       -4200,-1.43894e-12
430,        5000,       -4200,-1.43894e-12
431,       25000,       -4200,-1.43894e-12
432,       45000,       -4200,-1.43894e-12
433,       65000,       -4200,-1.43894e-12
434,       85000,       -4200,-1.43894e-12
435,        6000,       -4200,-1.43894e-12
436,       26000,       -4200,-1.43894e-12
437,       46000,       -4200,-1.43894e-12
438,       66000,       -4200,-1.43894e-12
439,       86000,       -4200,-1.43894e-12
440,        7000,       -4200,-1.43894e-12
441,       27000,       -4200,-1.43894e-12
442,       47000,       -4200,-1.43894e-12
443,       67000,       -4200,-1.43894e-12
444,       87000,       -4200,-1.43894e-12
445,        8000,       -4200,-1.43894e-12
446,       28000,       -4200,-1.43894e-12
447,       48000,       -4200,-1.43894e-12
448,       68000,       -4200,-1.43894e-12
449,       88000,       -4200,-1.43894e-12
450,        9000,       -4200,-1.43894e-12
451,       29000,       -4200,-1.43894e-12
452,       49000,       -4200,-1.43894e-12
453,       69000,       -4200,-1.43894e-12
454,       89000,       -4200,-1.43894e-12
455,       10000,       -4200,-1.43894e-12
456,       30000,       -4200,-1.43894e-12
457,       50000,       -4200,-1.43894e-12
458,       70000,       -4200,-1.43894e-12
459,       90000,       -4200,-1.43894e-12
460,       11000,       -4200,-1.43894e-12
461,       31000,       -4200,-1.43894e-12
462,       51000,       -4200,-1.43894e-12
463,       71000,       -4200,-1.43894e-12
464,       91000,       -4200,-1.43894e-12
465,       12000,       -4200,-1.43894e-12
466,       32000,       -4200,-1.43894e-12
467,       52000,       -4200,-1.43894e-12
468,       72000,       -4200,-1.43894e-12
469,       92000,       -4200,-1.43894e-12
470,       13000,       -4200,-1.43894e-12
471,       33000,       -4200,-1.43894e-12
472,       53000,       -4200,-1.43894e-12
473,       73000,       -4200,-1.43894e-12
474,       93000,       -4200,-1.43894e-12
475,       14000,       -4200,-1.43894e-12
476,       34000,       -4200,-1.43894e-12
477,       54000,       -4200,-1.43894e-12
478,       74000,       -4200,-1.43894e-12
479,       94000,       -4200,-1.43894e-12
480,       15000,       -4200,-1.43894e-12
481,       35000,       -4200,-1.43894e-12
482,       55000,       -4200,-1.43894e-12
483,       75000,       -4200,-1.43894e-12
484,       95000,       -4200,-1.43894e-12
485,       16000,       -4200,-1.43894e-12
486,       36000,       -4200,-1.43894e-12
487,       56000,       -4200,-1.43894e-12
488,       76000,       -4200,-1.43894e-12
489,       96000,       -4200,-1.43894e-12
490,       17000,       -4200,-1.43894e-12
491,       37000,       -4200,-1.43894e-12
492,       57000,       -4200,-1.43894e-12
493,       77000,       -4200,-1.43894e-12
494,       97000,       -4200,-1.43894e-12
495,       18000,       -4200,-1.43894e-12
496,       38000,       -4200,-1.43894e-12
497,       58000,       -4200,-1.43894e-12
498,       78000,       -4200,-1.43894e-12
499,       98000,       -4200,-1.43894e-12
500,       19000,       -4200,-1.43894e-12
501,       39000,       -4200,-1.43894e-12
502,       59000,       -4200,-1.43894e-12
503,       79000,       -4200,-1.43894e-12
504,       99000,       -4200,-1.43894e-12
505,      100000,       -4200,-1.43894e-12
506,           0, -3.3975e-13,         700
507,       20000, -3.3975e-13,         700
508,       40000, -3.3975e-13,         700
509,       60000, -3.3975e-13,         700
510,       80000, -3.3975e-13,         700
511,        1000, -3.3975e-13,         700
512,       21000, -3.3975e-13,         700
513,       41000, -3.3975e-13,         700
514,       61000, -3.3975e-13,         700
515,       81000, -3.3975e-13,         700
516,        2000, -3.3975e-13,         700
517,       22000, -3.3975e-13,         700
518,       42000, -3.3975e-13,         700
519,       62000, -3.3975e-13,         700
520,       82000, -3.3975e-13,         700
521,        3000, -3.3975e-13,         700
522,       23000, -3.3975e-13,         700
523,       43000, -3.3975e-13,         700
524,       63000, -3.3975e-13,         700
525,       83000, -3.3975e-13,         700
526,        4000, -3.3975e-13,         700
527,       24000, -3.3975e-13,         700
528,       44000, -3.3975e-13,         700
529,       64000, -3.3975e-13,         700
530,       84000, -3.3975e-13,         700
531,        5000, -3.3975e-13,         700
532,       25000, -3.3975e-13,         700
533,       45000, -3.3975e-13,         700
534,       65000, -3.3975e-13,         700
535,       85000, -3.3975e-13,         700
536,        6000, -3.3975e-13,         700
537,       26000, -3.3975e-13,         700
538,       46000, -3.3975e-13,         700
539,       66000, -3.3975e-13,         700
540,       86000, -3.3975e-13,         700
541,        7000, -3.3975e-13,         700
542,       27000, -3.3975e-13,         700
543,       47000, -3.3975e-13,         700
544,       67000, -3.3975e-13,         700
545,       87000, -3.3975e-13,         700
546,        8000, -3.3975e-13,         700
547,       28000, -3.3975e-13,         700
548,       48000, -3.3975e-13,         700
549,       68000, -3.3975e-13,         700
550,       88000, -3.3975e-13,         700
551,        9000, -3.3975e-13,         700
552,       29000, -3.3975e-13,         700
553,       49000, -3.3975e-13,         700
554,       69000, -3.3975e-13,         700
555,       89000, -3.3975e-13,         700
556,       10000, -3.3975e-13,         700
557,       30000, -3.3975e-13,         700
558,       50000, -3.3975e-13,         700
559,       70000, -3.3975e-13,         700
560,       90000, -3.3975e-13,         700
561,       11000, -3.3975e-13,         700
562,       31000, -3.3975e-13,         700
563,       51000, -3.3975e-13,         700
564,       71000, -3.3975e-13,         700
565,       91000, -3.3975e-13,         700
566,       12000, -3.3975e-13,         700
567,       32000, -3.3975e-13,         700
568,       52000, -3.3975e-13,         700
569,       72000, -3.3975e-13,         700
570,       92000, -3.3975e-13,         700
571,       13000, -3.3975e-13,         700
572,       33000, -3.3975e-13,         700
573,       53000, -3.3975e-13,         700
574,       73000, -3.3975e-13,         700
575,       93000, -3.3975e-13,         700
576,       14000, -3.3975e-13,         700
577,       34000, -3.3975e-13,         700
578,       54000, -3.3975e-13,         700
579,       74000, -3.3975e-13,         700
580,       94000, -3.3975e-13,         700
581,       15000, -3.3975e-13,         700
582,       35000, -3.3975e-13,         700
583,       55000, -3.3975e-13,         700
584,       75000, -3.3975e-13,         700
585,       95000, -3.3975e-13,         700
586,       16000, -3.3975e-13,         700
587,       36000, -3.3975e-13,         700
588,       56000, -3.3975e-13,         700
589,       76000, -3.3975e-13,         700
590,       96000, -3.3975e-13,         700
591,       17000, -3.3975e-13,         700
592,       37000, -3.3975e-13,         700
593,       57000, -3.3975e-13,         700
594,       77000, -3.3975e-13,         700
595,       97000, -3.3975e-13,         700
596,       18000, -3.3975e-13,         700
597,       38000, -3.3975e-13,         700
598,       58000, -3.3975e-13,         700
599,       78000, -3.3975e-13,         700
600,       98000, -3.3975e-13,         700
601,       19000, -3.3975e-13,         700
602,       39000, -3.3975e-13,         700
603,       59000, -3.3975e-13,         700
604,       79000, -3.3975e-13,         700
605,       99000, -3.3975e-13,         700
606,      100000, -3.3975e-13,         700
607,           0,        2100,         700
608,       20000,        2100,         700
609,       40000,        2100,         700
610,       60000,        2100,         700
611,       80000,        2100,         700
612,        1000,        2100,         700
613,       21000,        2100,         700
614,       41000,        2100,         700
615,       61000,        2100,         700
616,       81000,        2100,         700
617,        2000,        2100,         700
618,       22000,        2100,         700
619,       42000,        2100,         700
620,       62000,        2100,         700
621,       82000,        2100,         700
622,        3000,        2100,         700
623,       23000,        2100,         700
624,       43000,        2100,         700
625,       63000,        2100,         700
626,       83000,        2100,         700
627,        4000,        2100,         700
628,       24000,        2100,         700
629,       44000,        2100,         700
630,       64000,        2100,         700
631,       84000,        2100,         700
632,        5000,        2100,         700
633,       25000,        2100,         700
634,       45000,        2100,         700
635,       65000,        2100,         700
636,       85000,        2100,         700
637,        6000,        2100,         700
638,       26000,        2100,         700
639,       46000,        2100,         700
640,       66000,        2100,         700
641,       86000,        2100,         700
642,        7000,        2100,         700
643,       27000,        2100,         700
644,       47000,        2100,         700
645,       67000,        2100,         700
646,       87000,        2100,         700
647,        8000,        2100,         700
648,       28000,        2100,         700
649,       48000,        2100,         700
650,       68000,        2100,         700
651,       88000,        2100,         700
652,        9000,        2100,         700
653,       29000,        2100,         700
654,       49000,        2100,         700
655,       69000,        2100,         700
656,       89000,        2100,         700
657,       10000,        2100,         700
658,       30000,        2100,         700
659,       50000,        2100,         700
660,       70000,        2100,         700
661,       90000,        2100,         700
662,       11000,        2100,         700
663,       31000,        2100,         700
664,       51000,        2100,         700
665,       71000,        2100,         700
666,       91000,        2100,         700
667,       12000,        2100,         700
668,       32000,        2100,         700
669,       52000,        2100,         700
670,       72000,        2100,         700
671,       92000,        2100,         700
672,       13000,        2100,         700
673,       33000,        2100,         700
674,       53000,        2100,         700
675,       73000,        2100,         700
676,       93000,        2100,         700
677,       14000,        2100,         700
678,       34000,        2100,         700
679,       54000,        2100,         700
680,       74000,        2100,         700
681,       94000,        2100,         700
682,       15000,        2100,         700
683,       35000,        2100,         700
684,       55000,        2100,         700
685,       75000,        2100,         700
686,       95000,        2100,         700
687,       16000,        2100,         700
688,       36000,        2100,         700
689,       56000,        2100,         700
690,       76000,        2100,         700
691,       96000,        2100,         700
692,       17000,        2100,         700
693,       37000,        2100,         700
694,       57000,        2100,         700
695,       77000,        2100,         700
696,       97000,        2100,         700
697,       18000,        2100,         700
698,       38000,        2100,         700
699,       58000,        2100,         700
700,       78000,        2100,         700
701,       98000,        2100,         700
702,       19000,        2100,         700
703,       39000,        2100,         700
704,       59000,        2100,         700
705,       79000,        2100,         700
706,       99000,        2100,         700
707,      100000,        2100,         700
708,           0,        4200,         700
709,       20000,        4200,         700
710,       40000,        4200,         700
711,       60000,        4200,         700
712,       80000,        4200,         700
713,        1000,        4200,         700
714,       21000,        4200,         700
715,       41000,        4200,         700
716,       61000,        4200,         700
717,       81000,        4200,         700
718,        2000,        4200,         700
719,       22000,        4200,         700
720,       42000,        4200,         700
721,       62000,        4200,         700
722,       82000,        4200,         700
723,        3000,        4200,         700
724,       23000,        4200,         700
725,       43000,        4200,         700
726,       63000,        4200,         700
727,       83000,        4200,         700
728,        4000,        4200,         700
729,       24000,        4200,         700
730,       44000,        4200,         700
731,       64000,        4200,         700
732,       84000,        4200,         700
733,        5000,        4200,         700
734,       25000,        4200,         700
735,       45000,        4200,         700
736,       65000,        4200,         700
737,       85000,        4200,         700
738,        6000,        4200,         700
739,       26000,        4200,         700
740,       46000,        4200,         700
741,       66000,        4200,         700
742,       86000,        4200,         700
743,        7000,        4200,         700
744,       27000,        4200,         700
745,       47000,        4200,         700
746,       67000,        4200,         700
747,       87000,        4200,         700
748,        8000,        4200,         700
749,       28000,        4200,         700
750,       48000,        4200,         700
751,       68000,        4200,         700
752,       88000,        4200,         700
753,        9000,        4200,         700
754,       29000,        4200,         700
755,       49000,        4200,         700
756,       69000,        4200,         700
757,       89000,        4200,         700
758,       10000,        4200,         700
759,       30000,        4200,         700
760,       50000,        4200,         700
761,       70000,        4200,         700
762,       90000,        4200,         700
763,       11000,        4200,         700
764,       31000,        4200,         700
765,       51000,        4200,         700
766,       71000,        4200,         700
767,       91000,        4200,         700
768,       12000,        4200,         700
769,       32000,        4200,         700
770,       52000,        4200,         700
771,       72000,        4200,         700
772,       92000,        4200,         700
773,       13000,        4200,         700
774,       33000,        4200,         700
775,       53000,        4200,         700
776,       73000,        4200,         700
777,       93000,        4200,         700
778,       14000,        4200,         700
779,       34000,        4200,         700
780,       54000,        4200,         700
781,       74000,        4200,         700
782,       94000,        4200,         700
783,       15000,        4200,         700
784,       35000,        4200,         700
785,       55000,        4200,         700
786,       75000,        4200,         700
787,       95000,        4200,         700
788,       16000,        4200,         700
789,       36000,        4200,         700
790,       56000,        4200,         700
791,       76000,        4200,         700
792,       96000,        4200,         700
793,       17000,        4200,         700
794,       37000,        4200,         700
795,       57000,        4200,         700
796,       77000,        4200,         700
797,       97000,        4200,         700
798,       18000,        4200,         700
799,       38000,        4200,         700
800,       58000,        4200,         700
801,       78000,        4200,         700
802,       98000,        4200,         700
803,       19000,        4200,         700
804,       39000,        4200,         700
805,       59000,        4200,         700
806,       79000,        4200,         700
807,       99000,        4200,         700
808,      100000,        4200,         700
809,           0,       -2100,         700
810,       20000,       -2100,         700
811,       40000,       -2100,         700
812,       60000,       -2100,         700
813,       80000,       -2100,         700
814,        1000,       -2100,         700
815,       21000,       -2100,         700
816,       41000,       -2100,         700
817,       61000,       -2100,         700
818,       81000,       -2100,         700
819,        2000,       -2100,         700
820,       22000,       -2100,         700
821,       42000,       -2100,         700
822,       62000,       -2100,         700
823,       82000,       -2100,         700
824,        3000,       -2100,         700
825,       23000,       -2100,         700
826,       43000,       -2100,         700
827,       63000,       -2100,         700
828,       83000,       -2100,         700
829,        4000,       -2100,         700
830,       24000,       -2100,         700
831,       44000,       -2100,         700
832,       64000,       -2100,         700
833,       84000,       -2100,         700
834,        5000,       -2100,         700
835,       25000,       -2100,         700
836,       45000,       -2100,         700
837,       65000,       -2100,         700
838,       85000,       -2100,         700
839,        6000,       -2100,         700
840,       26000,       -2100,         700
841,       46000,       -2100,         700
842,       66000,       -2100,         700
843,       86000,       -2100,         700
844,        7000,       -2100,         700
845,       27000,       -2100,         700
846,       47000,       -2100,         700
847,       67000,       -2100,         700
848,       87000,       -2100,         700
849,        8000,       -2100,         700
850,       28000,       -2100,         700
851,       48000,       -2100,         700
852,       68000,       -2100,         700
853,       88000,       -2100,         700
854,        9000,       -2100,         700
855,       29000,       -2100,         700
856,       49000,       -2100,         700
857,       69000,       -2100,         700
858,       89000,       -2100,         700
859,       10000,       -2100,         700
860,       30000,       -2100,         700
861,       50000,       -2100,         700
862,       70000,       -2100,         700
863,       90000,       -2100,         700
864,       11000,       -2100,         700
865,       31000,       -2100,         700
866,       51000,       -2100,         700
867,       71000,       -2100,         700
868,       91000,       -2100,         700
869,       12000,       -2100,         700
870,       32000,       -2100,         700
871,       52000,       -2100,         700
872,       72000,       -2100,         700
873,       92000,       -2100,         700
874,       13000,       -2100,         700
875,       33000,       -2100,         700
876,       53000,       -2100,         700
877,       73000,       -2100,         700
878,       93000,       -2100,         700
879,       14000,       -2100,         700
880,       34000,       -2100,         700
881,       54000,       -2100,         700
882,       74000,       -2100,         700
883,       94000,       -2100,         700
884,       15000,       -2100,         700
885,       35000,       -2100,         700
886,       55000,       -2100,         700
887,       75000,       -2100,         700
888,       95000,       -2100,         700
889,       16000,       -2100,         700
890,       36000,       -2100,         700
891,       56000,       -2100,         700
892,       76000,       -2100,         700
893,       96000,       -2100,         700
894,       17000,       -2100,         700
895,       37000,       -2100,         700
896,       57000,       -2100,         700
897,       77000,       -2100,         700
898,       97000,       -2100,         700
899,       18000,       -2100,         700
900,       38000,       -2100,         700
901,       58000,       -2100,         700
902,       78000,       -2100,         700
903,       98000,       -2100,         700
904,       19000,       -2100,         700
905,       39000,       -2100,         700
906,       59000,       -2100,         700
907,       79000,       -2100,         700
908,       99000,       -2100,         700
909,      100000,       -2100,         700
910,           0,       -4200,         700
911,       20000,       -4200,         700
912,       40000,       -4200,         700
913,       60000,       -4200,         700
914,       80000,       -4200,         700
915,        1000,       -4200,         700
916,       21000,       -4200,         700
917,       41000,       -4200,         700
918,       61000,       -4200,         700
919,       81000,       -4200,         700
920,        2000,       -4200,         700
921,       22000,       -4200,         700
922,       42000,       -4200,         700
923,       62000,       -4200,         700
924,       82000,       -4200,         700
925,        3000,       -4200,         700
926,       23000,       -4200,         700
927,       43000,       -4200,         700
928,       63000,       -4200,         700
929,       83000,       -4200,         700
930,        4000,       -4200,         700
931,       24000,       -4200,         700
932,       44000,       -4200,         700
933,       64000,       -4200,         700
934,       84000,       -4200,         700
935,        5000,       -4200,         700
936,       25000,       -4200,         700
937,       45000,       -4200,         700
938,       65000,       -4200,         700
939,       85000,       -4200,         700
940,        6000,       -4200,         700
941,       26000,       -4200,         700
942,       46000,       -4200,         700
943,       66000,       -4200,         700
944,       86000,       -4200,         700
945,        7000,       -4200,         700
946,       27000,       -4200,         700
947,       47000,       -4200,         700
948,       67000,       -4200,         700
949,       87000,       -4200,         700
950,        8000,       -4200,         700
951,       28000,       -4200,         700
952,       48000,       -4200,         700
953,       68000,       -4200,         700
954,       88000,       -4200,         700
955,        9000,       -4200,         700
956,       29000,       -4200,         700
957,       49000,       -4200,         700
958,       69000,       -4200,         700
959,       89000,       -4200,         700
960,       10000,       -4200,         700
961,       30000,       -4200,         700
962,       50000,       -4200,         700
963,       70000,       -4200,         700
964,       90000,       -4200,         700
965,       11000,       -4200,         700
966,       31000,       -4200,         700
967,       51000,       -4200,         700
968,       71000,       -4200,         700
969,       91000,       -4200,         700
970,       12000,       -4200,         700
971,       32000,       -4200,         700
972,       52000,       -4200,         700
973,       72000,       -4200,         700
974,       92000,       -4200,         700
975,       13000,       -4200,         700
976,       33000,       -4200,         700
977,       53000,       -4200,         700
978,       73000,       -4200,         700
979,       93000,       -4200,         700
980,       14000,       -4200,         700
981,       34000,       -4200,         700
982,       54000,       -4200,         700
983,       74000,       -4200,         700
984,       94000,       -4200,         700
985,       15000,       -4200,         700
986,       35000,       -4200,         700
987,       55000,       -4200,         700
988,       75000,       -4200,         700
989,       95000,       -4200,         700
990,       16000,       -4200,         700
991,       36000,       -4200,         700
992,       56000,       -4200,         700
993,       76000,       -4200,         700
994,       96000,       -4200,         700
995,       17000,       -4200,         700
996,       37000,       -4200,         700
997,       57000,       -4200,         700
998,       77000,       -4200,         700
999,       97000,       -4200,         700
1000,       18000,       -4200,         700
1001,       38000,       -4200,         700
1002,       58000,       -4200,         700
1003,       78000,       -4200,         700
1004,       98000,       -4200,         700
1005,       19000,       -4200,         700
1006,       39000,       -4200,         700
1007,       59000,       -4200,         700
1008,       79000,       -4200,         700
1009,       99000,       -4200,         700
1010,      100000,       -4200,         700
1011,        1000,       -6000,         700
1012,        1000,       -5100,         700
1013,           0,       -5100,         700
1014,           0,       -6000,         700
1015,       21000,       -6000,         700
1016,       21000,       -5100,         700
1017,       20000,       -5100,         700
1018,       20000,       -6000,         700
1019,       41000,       -6000,         700
1020,       41000,       -5100,         700
1021,       40000,       -5100,         700
1022,       40000,       -6000,         700
1023,       61000,       -6000,         700
1024,       61000,       -5100,         700
1025,       60000,       -5100,         700
1026,       60000,       -6000,         700
1027,       81000,       -6000,         700
1028,       81000,       -5100,         700
1029,       80000,       -5100,         700
1030,       80000,       -6000,         700
1031,        1000,       -3150,         700
1032,           0,       -3150,         700
1033,       21000,       -3150,         700
1034,       20000,       -3150,         700
1035,       41000,       -3150,         700
1036,       40000,       -3150,         700
1037,       61000,       -3150,         700
1038,       60000,       -3150,         700
1039,       81000,       -3150,         700
1040,       80000,       -3150,         700
1041,        1000,       -1050,         700
1042,           0,       -1050,         700
1043,       21000,       -1050,         700
1044,       20000,       -1050,         700
1045,       41000,       -1050,         700
1046,       40000,       -1050,         700
1047,       61000,       -1050,         700
1048,       60000,       -1050,         700
1049,       81000,       -1050,         700
1050,       80000,       -1050,         700
1051,        1000,           0,         700
1052,           0,           0,         700
1053,       21000,           0,         700
1054,       20000,           0,         700
1055,       41000,           0,         700
1056,       40000,           0,         700
1057,       61000,           0,         700
1058,       60000,           0,         700
1059,       81000,           0,         700
1060,       80000,           0,         700
1061,        1000,        1050,         700
1062,           0,        1050,         700
1063,       21000,        1050,         700
1064,       20000,        1050,         700
1065,       41000,        1050,         700
1066,       40000,        1050,         700
1067,       61000,        1050,         700
1068,       60000,        1050,         700
1069,       81000,        1050,         700
1070,       80000,        1050,         700
1071,        1000,        3150,         700
1072,           0,        3150,         700
1073,       21000,        3150,         700
1074,       20000,        3150,         700
1075,       41000,        3150,         700
1076,       40000,        3150,         700
1077,       61000,        3150,         700
1078,       60000,        3150,         700
1079,       81000,        3150,         700
1080,       80000,        3150,         700
1081,        1000,        5100,         700
1082,           0,        5100,         700
1083,       21000,        5100,         700
1084,       20000,        5100,         700
1085,       41000,        5100,         700
1086,       40000,        5100,         700
1087,       61000,        5100,         700
1088,       60000,        5100,         700
1089,       81000,        5100,         700
1090,       80000,        5100,         700
1091,        1000,        6000,         700
1092,           0,        6000,         700
1093,       21000,        6000,         700
1094,       20000,        6000,         700
1095,       41000,        6000,         700
1096,       40000,        6000,         700
1097,       61000,        6000,         700
1098,       60000,        6000,         700
1099,       81000,        6000,         700
1100,       80000,        6000,         700
1101,        2000,       -6000,         700
1102,        2000,       -5100,         700
1103,       22000,       -6000,         700
1104,       22000,       -5100,         700
1105,       42000,       -6000,         700
1106,       42000,       -5100,         700
1107,       62000,       -6000,         700
1108,       62000,       -5100,         700
1109,       82000,       -6000,         700
1110,       82000,       -5100,         700
1111,        2000,       -3150,         700
1112,       22000,       -3150,         700
1113,       42000,       -3150,         700
1114,       62000,       -3150,         700
1115,       82000,       -3150,         700
1116,        2000,       -1050,         700
1117,       22000,       -1050,         700
1118,       42000,       -1050,         700
1119,       62000,       -1050,         700
1120,       82000,       -1050,         700
1121,        2000,           0,         700
1122,       22000,           0,         700
1123,       42000,           0,         700
1124,       62000,           0,         700
1125,       82000,           0,         700
1126,        2000,        1050,         700
1127,       22000,        1050,         700
1128,       42000,        1050,         700
1129,       62000,        1050,         700
1130,       82000,        1050,         700
1131,        2000,        3150,         700
1132,       22000,        3150,         700
1133,       42000,        3150,         700
1134,       62000,        3150,         700
1135,       82000,        3150,         700
1136,        2000,        5100,         700
1137,       22000,        5100,         700
1138,       42000,        5100,         700
1139,       62000,        5100,         700
1140,       82000,        5100,         700
1141,        2000,        6000,         700
1142,       22000,        6000,         700
1143,       42000,        6000,         700
1144,       62000,        6000,         700
1145,       82000,        6000,         700
1146,        3000,       -6000,         700
1147,        3000,       -5100,         700
1148,       23000,       -6000,         700
1149,       23000,       -5100,         700
1150,       43000,       -6000,         700
1151,       43000,       -5100,         700
1152,       63000,       -6000,         700
1153,       63000,       -5100,         700
1154,       83000,       -6000,         700
1155,       83000,       -5100,         700
1156,        3000,       -3150,         700
1157,       23000,       -3150,         700
1158,       43000,       -3150,         700
1159,       63000,       -3150,         700
1160,       83000,       -3150,         700
1161,        3000,       -1050,         700
1162,       23000,       -1050,         700
1163,       43000,       -1050,         700
1164,       63000,       -1050,         700
1165,       83000,       -1050,         700
1166,        3000,           0,         700
1167,       23000,           0,         700
1168,       43000,           0,         700
1169,       63000,           0,         700
1170,       83000,           0,         700
1171,        3000,        1050,         700
1172,       23000,        1050,         700
1173,       43000,        1050,         700
1174,       63000,        1050,         700
1175,       83000,        1050,         700
1176,        3000,        3150,         700
1177,       23000,        3150,         700
1178,       43000,        3150,         700
1179,       63000,        3150,         700
1180,       83000,        3150,         700
1181,        3000,        5100,         700
1182,       23000,        5100,         700
1183,       43000,        5100,         700
1184,       63000,        5100,         700
1185,       83000,        5100,         700
1186,        3000,        6000,         700
1187,       23000,        6000,         700
1188,       43000,        6000,         700
1189,       63000,        6000,         700
1190,       83000,        6000,         700
1191,        4000,       -6000,         700
1192,        4000,       -5100,         700
1193,       24000,       -6000,         700
1194,       24000,       -5100,         700
1195,       44000,       -6000,         700
1196,       44000,       -5100,         700
1197,       64000,       -6000,         700
1198,       64000,       -5100,         700
1199,       84000,       -6000,         700
1200,       84000,       -5100,         700
1201,        4000,       -3150,         700
1202,       24000,       -3150,         700
1203,       44000,       -3150,         700
1204,       64000,       -3150,         700
1205,       84000,       -3150,         700
1206,        4000,       -1050,         700
1207,       24000,       -1050,         700
1208,       44000,       -1050,         700
1209,       64000,       -1050,         700
1210,       84000,       -1050,         700
1211,        4000,           0,         700
1212,       24000,           0,         700
1213,       44000,           0,         700
1214,       64000,           0,         700
1215,       84000,           0,         700
1216,        4000,        1050,         700
1217,       24000,        1050,         700
1218,       44000,        1050,         700
1219,       64000,        1050,         700
1220,       84000,        1050,         700
1221,        4000,        3150,         700
1222,       24000,        3150,         700
1223,       44000,        3150,         700
1224,       64000,        3150,         700
1225,       84000,        3150,         700
1226,        4000,        5100,         700
1227,       24000,        5100,         700
1228,       44000,        5100,         700
1229,       64000,        5100,         700
1230,       84000,        5100,         700
1231,        4000,        6000,         700
1232,       24000,        6000,         700
1233,       44000,        6000,         700
1234,       64000,        6000,         700
1235,       84000,        6000,         700
1236,        5000,       -6000,         700
1237,        5000,       -5100,         700
1238,       25000,       -6000,         700
1239,       25000,       -5100,         700
1240,       45000,       -6000,         700
1241,       45000,       -5100,         700
1242,       65000,       -6000,         700
1243,       65000,       -5100,         700
1244,       85000,       -6000,         700
1245,       85000,       -5100,         700
1246,        5000,       -3150,         700
1247,       25000,       -3150,         700
1248,       45000,       -3150,         700
1249,       65000,       -3150,         700
1250,       85000,       -3150,         700
1251,        5000,       -1050,         700
1252,       25000,       -1050,         700
1253,       45000,       -1050,         700
1254,       65000,       -1050,         700
1255,       85000,       -1050,         700
1256,        5000,           0,         700
1257,       25000,           0,         700
1258,       45000,           0,         700
1259,       65000,           0,         700
1260,       85000,           0,         700
1261,        5000,        1050,         700
1262,       25000,        1050,         700
1263,       45000,        1050,         700
1264,       65000,        1050,         700
1265,       85000,        1050,         700
1266,        5000,        3150,         700
1267,       25000,        3150,         700
1268,       45000,        3150,         700
1269,       65000,        3150,         700
1270,       85000,        3150,         700
1271,        5000,        5100,         700
1272,       25000,        5100,         700
1273,       45000,        5100,         700
1274,       65000,        5100,         700
1275,       85000,        5100,         700
1276,        5000,        6000,         700
1277,       25000,        6000,         700
1278,       45000,        6000,         700
1279,       65000,        6000,         700
1280,       85000,        6000,         700
1281,        6000,       -6000,         700
1282,        6000,       -5100,         700
1283,       26000,       -6000,         700
1284,       26000,       -5100,         700
1285,       46000,       -6000,         700
1286,       46000,       -5100,         700
1287,       66000,       -6000,         700
1288,       66000,       -5100,         700
1289,       86000,       -6000,         700
1290,       86000,       -5100,         700
1291,        6000,       -3150,         700
1292,       26000,       -3150,         700
1293,       46000,       -3150,         700
1294,       66000,       -3150,         700
1295,       86000,       -3150,         700
1296,        6000,       -1050,         700
1297,       26000,       -1050,         700
1298,       46000,       -1050,         700
1299,       66000,       -1050,         700
1300,       86000,       -1050,         700
1301,        6000,           0,         700
1302,       26000,           0,         700
1303,       46000,           0,         700
1304,       66000,           0,         700
1305,       86000,           0,         700
1306,        6000,        1050,         700
1307,       26000,        1050,         700
1308,       46000,        1050,         700
1309,       66000,        1050,         700
1310,       86000,        1050,         700
1311,        6000,        3150,         700
1312,       26000,        3150,         700
1313,       46000,        3150,         700
1314,       66000,        3150,         700
1315,       86000,        3150,         700
1316,        6000,        5100,         700
1317,       26000,        5100,         700
1318,       46000,        5100,         700
1319,       66000,        5100,         700
1320,       86000,        5100,         700
1321,        6000,        6000,         700
1322,       26000,        6000,         700
1323,       46000,        6000,         700
1324,       66000,        6000,         700
1325,       86000,        6000,         700
1326,        7000,       -6000,         700
1327,        7000,       -5100,         700
1328,       27000,       -6000,         700
1329,       27000,       -5100,         700
1330,       47000,       -6000,         700
1331,       47000,       -5100,         700
1332,       67000,       -6000,         700
1333,       67000,       -5100,         700
1334,       87000,       -6000,         700
1335,       87000,       -5100,         700
1336,        7000,       -3150,         700
1337,       27000,       -3150,         700
1338,       47000,       -3150,         700
1339,       67000,       -3150,         700
1340,       87000,       -3150,         700
1341,        7000,       -1050,         700
1342,       27000,       -1050,         700
1343,       47000,       -1050,         700
1344,       67000,       -1050,         700
1345,       87000,       -1050,         700
1346,        7000,           0,         700
1347,       27000,           0,         700
1348,       47000,           0,         700
1349,       67000,           0,         700
1350,       87000,           0,         700
1351,        7000,        1050,         700
1352,       27000,        1050,         700
1353,       47000,        1050,         700
1354,       67000,        1050,         700
1355,       87000,        1050,         700
1356,        7000,        3150,         700
1357,       27000,        3150,         700
1358,       47000,        3150,         700
1359,       67000,        3150,         700
1360,       87000,        3150,         700
1361,        7000,        5100,         700
1362,       27000,        5100,         700
1363,       47000,        5100,         700
1364,       67000,        5100,         700
1365,       87000,        5100,         700
1366,        7000,        6000,         700
1367,       27000,        6000,         700
1368,       47000,        6000,         700
1369,       67000,        6000,         700
1370,       87000,        6000,         700
1371,        8000,       -6000,         700
1372,        8000,       -5100,         700
1373,       28000,       -6000,         700
1374,       28000,       -5100,         700
1375,       48000,       -6000,         700
1376,       48000,       -5100,         700
1377,       68000,       -6000,         700
1378,       68000,       -5100,         700
1379,       88000,       -6000,         700
1380,       88000,       -5100,         700
1381,        8000,       -3150,         700
1382,       28000,       -3150,         700
1383,       48000,       -3150,         700
1384,       68000,       -3150,         700
1385,       88000,       -3150,         700
1386,        8000,       -1050,         700
1387,       28000,       -1050,         700
1388,       48000,       -1050,         700
1389,       68000,       -1050,         700
1390,       88000,       -1050,         700
1391,        8000,           0,         700
1392,       28000,           0,         700
1393,       48000,           0,         700
1394,       68000,           0,         700
1395,       88000,           0,         700
1396,        8000,        1050,         700
1397,       28000,        1050,         700
1398,       48000,        1050,         700
1399,       68000,        1050,         700
1400,       88000,        1050,         700
1401,        8000,        3150,         700
1402,       28000,        3150,         700
1403,       48000,        3150,         700
1404,       68000,        3150,         700
1405,       88000,        3150,         700
1406,        8000,        5100,         700
1407,       28000,        5100,         700
1408,       48000,        5100,         700
1409,       68000,        5100,         700
1410,       88000,        5100,         700
1411,        8000,        6000,         700
1412,       28000,        6000,         700
1413,       48000,        6000,         700
1414,       68000,        6000,         700
1415,       88000,        6000,         700
1416,        9000,       -6000,         700
1417,        9000,       -5100,         700
1418,       29000,       -6000,         700
1419,       29000,       -5100,         700
1420,       49000,       -6000,         700
1421,       49000,       -5100,         700
1422,       69000,       -6000,         700
1423,       69000,       -5100,         700
1424,       89000,       -6000,         700
1425,       89000,       -5100,         700
1426,        9000,       -3150,         700
1427,       29000,       -3150,         700
1428,       49000,       -3150,         700
1429,       69000,       -3150,         700
1430,       89000,       -3150,         700
1431,        9000,       -1050,         700
1432,       29000,       -1050,         700
1433,       49000,       -1050,         700
1434,       69000,       -1050,         700
1435,       89000,       -1050,         700
1436,        9000,           0,         700
1437,       29000,           0,         700
1438,       49000,           0,         700
1439,       69000,           0,         700
1440,       89000,           0,         700
1441,        9000,        1050,         700
1442,       29000,        1050,         700
1443,       49000,        1050,         700
1444,       69000,        1050,         700
1445,       89000,        1050,         700
1446,        9000,        3150,         700
1447,       29000,        3150,         700
1448,       49000,        3150,         700
1449,       69000,        3150,         700
1450,       89000,        3150,         700
1451,        9000,        5100,         700
1452,       29000,        5100,         700
1453,       49000,        5100,         700
1454,       69000,        5100,         700
1455,       89000,        5100,         700
1456,        9000,        6000,         700
1457,       29000,        6000,         700
1458,       49000,        6000,         700
1459,       69000,        6000,         700
1460,       89000,        6000,         700
1461,       10000,       -6000,         700
1462,       10000,       -5100,         700
1463,       30000,       -6000,         700
1464,       30000,       -5100,         700
1465,       50000,       -6000,         700
1466,       50000,       -5100,         700
1467,       70000,       -6000,         700
1468,       70000,       -5100,         700
1469,       90000,       -6000,         700
1470,       90000,       -5100,         700
1471,       10000,       -3150,         700
1472,       30000,       -3150,         700
1473,       50000,       -3150,         700
1474,       70000,       -3150,         700
1475,       90000,       -3150,         700
1476,       10000,       -1050,         700
1477,       30000,       -1050,         700
1478,       50000,       -1050,         700
1479,       70000,       -1050,         700
1480,       90000,       -1050,         700
1481,       10000,           0,         700
1482,       30000,           0,         700
1483,       50000,           0,         700
1484,       70000,           0,         700
1485,       90000,           0,         700
1486,       10000,        1050,         700
1487,       30000,        1050,         700
1488,       50000,        1050,         700
1489,       70000,        1050,         700
1490,       90000,        1050,         700
1491,       10000,        3150,         700
1492,       30000,        3150,         700
1493,       50000,        3150,         700
1494,       70000,        3150,         700
1495,       90000,        3150,         700
1496,       10000,        5100,         700
1497,       30000,        5100,         700
1498,       50000,        5100,         700
1499,       70000,        5100,         700
1500,       90000,        5100,         700
1501,       10000,        6000,         700
1502,       30000,        6000,         700
1503,       50000,        6000,         700
1504,       70000,        6000,         700
1505,       90000,        6000,         700
1506,       11000,       -6000,         700
1507,       11000,       -5100,         700
1508,       31000,       -6000,         700
1509,       31000,       -5100,         700
1510,       51000,       -6000,         700
1511,       51000,       -5100,         700
1512,       71000,       -6000,         700
1513,       71000,       -5100,         700
1514,       91000,       -6000,         700
1515,       91000,       -5100,         700
1516,       11000,       -3150,         700
1517,       31000,       -3150,         700
1518,       51000,       -3150,         700
1519,       71000,       -3150,         700
1520,       91000,       -3150,         700
1521,       11000,       -1050,         700
1522,       31000,       -1050,         700
1523,       51000,       -1050,         700
1524,       71000,       -1050,         700
1525,       91000,       -1050,         700
1526,       11000,           0,         700
1527,       31000,           0,         700
1528,       51000,           0,         700
1529,       71000,           0,         700
1530,       91000,           0,         700
1531,       11000,        1050,         700
1532,       31000,        1050,         700
1533,       51000,        1050,         700
1534,       71000,        1050,         700
1535,       91000,        1050,         700
1536,       11000,        3150,         700
1537,       31000,        3150,         700
1538,       51000,        3150,         700
1539,       71000,        3150,         700
1540,       91000,        3150,         700
1541,       11000,        5100,         700
1542,       31000,        5100,         700
1543,       51000,        5100,         700
1544,       71000,        5100,         700
1545,       91000,        5100,         700
1546,       11000,        6000,         700
1547,       31000,        6000,         700
1548,       51000,        6000,         700
1549,       71000,        6000,         700
1550,       91000,        6000,         700
1551,       12000,       -6000,         700
1552,       12000,       -5100,         700
1553,       32000,       -6000,         700
1554,       32000,       -5100,         700
1555,       52000,       -6000,         700
1556,       52000,       -5100,         700
1557,       72000,       -6000,         700
1558,       72000,       -5100,         700
1559,       92000,       -6000,         700
1560,       92000,       -5100,         700
1561,       12000,       -3150,         700
1562,       32000,       -3150,         700
1563,       52000,       -3150,         700
1564,       72000,       -3150,         700
1565,       92000,       -3150,         700
1566,       12000,       -1050,         700
1567,       32000,       -1050,         700
1568,       52000,       -1050,         700
1569,       72000,       -1050,         700
1570,       92000,       -1050,         700
1571,       12000,           0,         700
1572,       32000,           0,         700
1573,       52000,           0,         700
1574,       72000,           0,         700
1575,       92000,           0,         700
1576,       12000,        1050,         700
1577,       32000,        1050,         700
1578,       52000,        1050,         700
1579,       72000,        1050,         700
1580,       92000,        1050,         700
1581,       12000,        3150,         700
1582,       32000,        3150,         700
1583,       52000,        3150,         700
1584,       72000,        3150,         700
1585,       92000,        3150,         700
1586,       12000,        5100,         700
1587,       32000,        5100,         700
1588,       52000,        5100,         700
1589,       72000,        5100,         700
1590,       92000,        5100,         700
1591,       12000,        6000,         700
1592,       32000,        6000,         700
1593,       52000,        6000,         700
1594,       72000,        6000,         700
1595,       92000,        6000,         700
1596,       13000,       -6000,         700
1597,       13000,       -5100,         700
1598,       33000,       -6000,         700
1599,       33000,       -5100,         700
1600,       53000,       -6000,         700
1601,       53000,       -5100,         700
1602,       73000,       -6000,         700
1603,       73000,       -5100,         700
1604,       93000,       -6000,         700
1605,       93000,       -5100,         700
1606,       13000,       -3150,         700
1607,       33000,       -3150,         700
1608,       53000,       -3150,         700
1609,       73000,       -3150,         700
1610,       93000,       -3150,         700
1611,       13000,       -1050,         700
1612,       33000,       -1050,         700
1613,       53000,       -1050,         700
1614,       73000,       -1050,         700
1615,       93000,       -1050,         700
1616,       13000,           0,         700
1617,       33000,           0,         700
1618,       53000,           0,         700
1619,       73000,           0,         700
1620,       93000,           0,         700
1621,       13000,        1050,         700
1622,       33000,        1050,         700
1623,       53000,        1050,         700
1624,       73000,        1050,         700
1625,       93000,        1050,         700
1626,       13000,        3150,         700
1627,       33000,        3150,         700
1628,       53000,        3150,         700
1629,       73000,        3150,         700
1630,       93000,        3150,         700
1631,       13000,        5100,         700
1632,       33000,        5100,         700
1633,       53000,        5100,         700
1634,       73000,        5100,         700
1635,       93000,        5100,         700
1636,       13000,        6000,         700
1637,       33000,        6000,         700
1638,       53000,        6000,         700
1639,       73000,        6000,         700
1640,       93000,        6000,         700
1641,       14000,       -6000,         700
1642,       14000,       -5100,         700
1643,       34000,       -6000,         700
1644,       34000,       -5100,         700
1645,       54000,       -6000,         700
1646,       54000,       -5100,         700
1647,       74000,       -6000,         700
1648,       74000,       -5100,         700
1649,       94000,       -6000,         700
1650,       94000,       -5100,         700
1651,       14000,       -3150,         700
1652,       34000,       -3150,         700
1653,       54000,       -3150,         700
1654,       74000,       -3150,         700
1655,       94000,       -3150,         700
1656,       14000,       -1050,         700
1657,       34000,       -1050,         700
1658,       54000,       -1050,         700
1659,       74000,       -1050,         700
1660,       94000,       -1050,         700
1661,       14000,           0,         700
1662,       34000,           0,         700
1663,       54000,           0,         700
1664,       74000,           0,         700
1665,       94000,           0,         700
1666,       14000,        1050,         700
1667,       34000,        1050,         700
1668,       54000,        1050,         700
1669,       74000,        1050,         700
1670,       94000,        1050,         700
1671,       14000,        3150,         700
1672,       34000,        3150,         700
1673,       54000,        3150,         700
1674,       74000,        3150,         700
1675,       94000,        3150,         700
1676,       14000,        5100,         700
1677,       34000,        5100,         700
1678,       54000,        5100,         700
1679,       74000,        5100,         700
1680,       94000,        5100,         700
1681,       14000,        6000,         700
1682,       34000,        6000,         700
1683,       54000,        6000,         700
1684,       74000,        6000,         700
1685,       94000,        6000,         700
1686,       15000,       -6000,         700
1687,       15000,       -5100,         700
1688,       35000,       -6000,         700
1689,       35000,       -5100,         700
1690,       55000,       -6000,         700
1691,       55000,       -5100,         700
1692,       75000,       -6000,         700
1693,       75000,       -5100,         700
1694,       95000,       -6000,         700
1695,       95000,       -5100,         700
1696,       15000,       -3150,         700
1697,       35000,       -3150,         700
1698,       55000,       -3150,         700
1699,       75000,       -3150,         700
1700,       95000,       -3150,         700
1701,       15000,       -1050,         700
1702,       35000,       -1050,         700
1703,       55000,       -1050,         700
1704,       75000,       -1050,         700
1705,       95000,       -1050,         700
1706,       15000,           0,         700
1707,       35000,           0,         700
1708,       55000,           0,         700
1709,       75000,           0,         700
1710,       95000,           0,         700
1711,       15000,        1050,         700
1712,       35000,        1050,         700
1713,       55000,        1050,         700
1714,       75000,        1050,         700
1715,       95000,        1050,         700
1716,       15000,        3150,         700
1717,       35000,        3150,         700
1718,       55000,        3150,         700
1719,       75000,        3150,         700
1720,       95000,        3150,         700
1721,       15000,        5100,         700
1722,       35000,        5100,         700
1723,       55000,        5100,         700
1724,       75000,        5100,         700
1725,       95000,        5100,         700
1726,       15000,        6000,         700
1727,       35000,        6000,         700
1728,       55000,        6000,         700
1729,       75000,        6000,         700
1730,       95000,        6000,         700
1731,       16000,       -6000,         700
1732,       16000,       -5100,         700
1733,       36000,       -6000,         700
1734,       36000,       -5100,         700
1735,       56000,       -6000,         700
1736,       56000,       -5100,         700
1737,       76000,       -6000,         700
1738,       76000,       -5100,         700
1739,       96000,       -6000,         700
1740,       96000,       -5100,         700
1741,       16000,       -3150,         700
1742,       36000,       -3150,         700
1743,       56000,       -3150,         700
1744,       76000,       -3150,         700
1745,       96000,       -3150,         700
1746,       16000,       -1050,         700
1747,       36000,       -1050,         700
1748,       56000,       -1050,         700
1749,       76000,       -1050,         700
1750,       96000,       -1050,         700
1751,       16000,           0,         700
1752,       36000,           0,         700
1753,       56000,           0,         700
1754,       76000,           0,         700
1755,       96000,           0,         700
1756,       16000,        1050,         700
1757,       36000,        1050,         700
1758,       56000,        1050,         700
1759,       76000,        1050,         700
1760,       96000,        1050,         700
1761,       16000,        3150,         700
1762,       36000,        3150,         700
1763,       56000,        3150,         700
1764,       76000,        3150,         700
1765,       96000,        3150,         700
1766,       16000,        5100,         700
1767,       36000,        5100,         700
1768,       56000,        5100,         700
1769,       76000,        5100,         700
1770,       96000,        5100,         700
1771,       16000,        6000,         700
1772,       36000,        6000,         700
1773,       56000,        6000,         700
1774,       76000,        6000,         700
1775,       96000,        6000,         700
1776,       17000,       -6000,         700
1777,       17000,       -5100,         700
1778,       37000,       -6000,         700
1779,       37000,       -5100,         700
1780,       57000,       -6000,         700
1781,       57000,       -5100,         700
1782,       77000,       -6000,         700
1783,       77000,       -5100,         700
1784,       97000,       -6000,         700
1785,       97000,       -5100,         700
1786,       17000,       -3150,         700
1787,       37000,       -3150,         700
1788,       57000,       -3150,         700
1789,       77000,       -3150,         700
1790,       97000,       -3150,         700
1791,       17000,       -1050,         700
1792,       37000,       -1050,         700
1793,       57000,       -1050,         700
1794,       77000,       -1050,         700
1795,       97000,       -1050,         700
1796,       17000,           0,         700
1797,       37000,           0,         700
1798,       57000,           0,         700
1799,       77000,           0,         700
1800,       97000,           0,         700
1801,       17000,        1050,         700
1802,       37000,        1050,         700
1803,       57000,        1050,         700
1804,       77000,        1050,         700
1805,       97000,        1050,         700
1806,       17000,        3150,         700
1807,       37000,        3150,         700
1808,       57000,        3150,         700
1809,       77000,        3150,         700
1810,       97000,        3150,         700
1811,       17000,        5100,         700
1812,       37000,        5100,         700
1813,       57000,        5100,         700
1814,       77000,        5100,         700
1815,       97000,        5100,         700
1816,       17000,        6000,         700
1817,       37000,        6000,         700
1818,       57000,        6000,         700
1819,       77000,        6000,         700
1820,       97000,        6000,         700
1821,       18000,       -6000,         700
1822,       18000,       -5100,         700
1823,       38000,       -6000,         700
1824,       38000,       -5100,         700
1825,       58000,       -6000,         700
1826,       58000,       -5100,         700
1827,       78000,       -6000,         700
1828,       78000,       -5100,         700
1829,       98000,       -6000,         700
1830,       98000,       -5100,         700
1831,       18000,       -3150,         700
1832,       38000,       -3150,         700
1833,       58000,       -3150,         700
1834,       78000,       -3150,         700
1835,       98000,       -3150,         700
1836,       18000,       -1050,         700
1837,       38000,       -1050,         700
1838,       58000,       -1050,         700
1839,       78000,       -1050,         700
1840,       98000,       -1050,         700
1841,       18000,           0,         700
1842,       38000,           0,         700
1843,       58000,           0,         700
1844,       78000,           0,         700
1845,       98000,           0,         700
1846,       18000,        1050,         700
1847,       38000,        1050,         700
1848,       58000,        1050,         700
1849,       78000,        1050,         700
1850,       98000,        1050,         700
1851,       18000,        3150,         700
1852,       38000,        3150,         700
1853,       58000,        3150,         700
1854,       78000,        3150,         700
1855,       98000,        3150,         700
1856,       18000,        5100,         700
1857,       38000,        5100,         700
1858,       58000,        5100,         700
1859,       78000,        5100,         700
1860,       98000,        5100,         700
1861,       18000,        6000,         700
1862,       38000,        6000,         700
1863,       58000,        6000,         700
1864,       78000,        6000,         700
1865,       98000,        6000,         700
1866,       19000,       -6000,         700
1867,       19000,       -5100,         700
1868,       39000,       -6000,         700
1869,       39000,       -5100,         700
1870,       59000,       -6000,         700
1871,       59000,       -5100,         700
1872,       79000,       -6000,         700
1873,       79000,       -5100,         700
1874,       99000,       -6000,         700
1875,       99000,       -5100,         700
1876,       19000,       -3150,         700
1877,       39000,       -3150,         700
1878,       59000,       -3150,         700
1879,       79000,       -3150,         700
1880,       99000,       -3150,         700
1881,       19000,       -1050,         700
1882,       39000,       -1050,         700
1883,       59000,       -1050,         700
1884,       79000,       -1050,         700
1885,       99000,       -1050,         700
1886,       19000,           0,         700
1887,       39000,           0,         700
1888,       59000,           0,         700
1889,       79000,           0,         700
1890,       99000,           0,         700
1891,       19000,        1050,         700
1892,       39000,        1050,         700
1893,       59000,        1050,         700
1894,       79000,        1050,         700
1895,       99000,        1050,         700
1896,       19000,        3150,         700
1897,       39000,        3150,         700
1898,       59000,        3150,         700
1899,       79000,        3150,         700
1900,       99000,        3150,         700
1901,       19000,        5100,         700
1902,       39000,        5100,         700
1903,       59000,        5100,         700
1904,       79000,        5100,         700
1905,       99000,        5100,         700
1906,       19000,        6000,         700
1907,       39000,        6000,         700
1908,       59000,        6000,         700
1909,       79000,        6000,         700
1910,       99000,        6000,         700
1911,      100000,       -6000,         700
1912,      100000,       -5100,         700
1913,      100000,       -3150,         700
1914,      100000,       -1050,         700
1915,      100000,           0,         700
1916,      100000,        1050,         700
1917,      100000,        3150,         700
1918,      100000,        5100,         700
1919,      100000,        6000,         700


*ELEMENT,  TYPE=B31
1,       1,       2
2,       3,       4
3,       5,       6
4,       7,       8
5,       9,      10
6,       2,      11
7,       4,      12
8,       6,      13
9,       8,      14
10,      10,      15
11,      11,      16
12,      12,      17
13,      13,      18
14,      14,      19
15,      15,      20
16,      16,      21
17,      17,      22
18,      18,      23
19,      19,      24
20,      20,      25
21,      21,      26
22,      22,      27
23,      23,      28
24,      24,      29
25,      25,      30
26,      26,      31
27,      27,      32
28,      28,      33
29,      29,      34
30,      30,      35
31,      31,      36
32,      32,      37
33,      33,      38
34,      34,      39
35,      35,      40
36,      36,      41
37,      37,      42
38,      38,      43
39,      39,      44
40,      40,      45
41,      41,      46
42,      42,      47
43,      43,      48
44,      44,      49
45,      45,      50
46,      46,      51
47,      47,      52
48,      48,      53
49,      49,      54
50,      50,      55
51,      51,      56
52,      52,      57
53,      53,      58
54,      54,      59
55,      55,      60
56,      56,      61
57,      57,      62
58,      58,      63
59,      59,      64
60,      60,      65
61,      61,      66
62,      62,      67
63,      63,      68
64,      64,      69
65,      65,      70
66,      66,      71
67,      67,      72
68,      68,      73
69,      69,      74
70,      70,      75
71,      71,      76
72,      72,      77
73,      73,      78
74,      74,      79
75,      75,      80
76,      76,      81
77,      77,      82
78,      78,      83
79,      79,      84
80,      80,      85
81,      81,      86
82,      82,      87
83,      83,      88
84,      84,      89
85,      85,      90
86,      86,      91
87,      87,      92
88,      88,      93
89,      89,      94
90,      90,      95
91,      91,      96
92,      92,      97
93,      93,      98
94,      94,      99
95,      95,     100
96,      96,       3
97,      97,       5
98,      98,       7
99,      99,       9
100,     100,     101
101,     102,     103
102,     104,     105
103,     106,     107
104,     108,     109
105,     110,     111
106,     103,     112
107,     105,     113
108,     107,     114
109,     109,     115
110,     111,     116
111,     112,     117
112,     113,     118
113,     114,     119
114,     115,     120
115,     116,     121
116,     117,     122
117,     118,     123
118,     119,     124
119,     120,     125
120,     121,     126
121,     122,     127
122,     123,     128
123,     124,     129
124,     125,     130
125,     126,     131
126,     127,     132
127,     128,     133
128,     129,     134
129,     130,     135
130,     131,     136
131,     132,     137
132,     133,     138
133,     134,     139
134,     135,     140
135,     136,     141
136,     137,     142
137,     138,     143
138,     139,     144
139,     140,     145
140,     141,     146
141,     142,     147
142,     143,     148
143,     144,     149
144,     145,     150
145,     146,     151
146,     147,     152
147,     148,     153
148,     149,     154
149,     150,     155
150,     151,     156
151,     152,     157
152,     153,     158
153,     154,     159
154,     155,     160
155,     156,     161
156,     157,     162
157,     158,     163
158,     159,     164
159,     160,     165
160,     161,     166
161,     162,     167
162,     163,     168
163,     164,     169
164,     165,     170
165,     166,     171
166,     167,     172
167,     168,     173
168,     169,     174
169,     170,     175
170,     171,     176
171,     172,     177
172,     173,     178
173,     174,     179
174,     175,     180
175,     176,     181
176,     177,     182
177,     178,     183
178,     179,     184
179,     180,     185
180,     181,     186
181,     182,     187
182,     183,     188
183,     184,     189
184,     185,     190
185,     186,     191
186,     187,     192
187,     188,     193
188,     189,     194
189,     190,     195
190,     191,     196
191,     192,     197
192,     193,     198
193,     194,     199
194,     195,     200
195,     196,     201
196,     197,     104
197,     198,     106
198,     199,     108
199,     200,     110
200,     201,     202
201,     203,     204
202,     205,     206
203,     207,     208
204,     209,     210
205,     211,     212
206,     204,     213
207,     206,     214
208,     208,     215
209,     210,     216
210,     212,     217
211,     213,     218
212,     214,     219
213,     215,     220
214,     216,     221
215,     217,     222
216,     218,     223
217,     219,     224
218,     220,     225
219,     221,     226
220,     222,     227
221,     223,     228
222,     224,     229
223,     225,     230
224,     226,     231
225,     227,     232
226,     228,     233
227,     229,     234
228,     230,     235
229,     231,     236
230,     232,     237
231,     233,     238
232,     234,     239
233,     235,     240
234,     236,     241
235,     237,     242
236,     238,     243
237,     239,     244
238,     240,     245
239,     241,     246
240,     242,     247
241,     243,     248
242,     244,     249
243,     245,     250
244,     246,     251
245,     247,     252
246,     248,     253
247,     249,     254
248,     250,     255
249,     251,     256
250,     252,     257
251,     253,     258
252,     254,     259
253,     255,     260
254,     256,     261
255,     257,     262
256,     258,     263
257,     259,     264
258,     260,     265
259,     261,     266
260,     262,     267
261,     263,     268
262,     264,     269
263,     265,     270
264,     266,     271
265,     267,     272
266,     268,     273
267,     269,     274
268,     270,     275
269,     271,     276
270,     272,     277
271,     273,     278
272,     274,     279
273,     275,     280
274,     276,     281
275,     277,     282
276,     278,     283
277,     279,     284
278,     280,     285
279,     281,     286
280,     282,     287
281,     283,     288
282,     284,     289
283,     285,     290
284,     286,     291
285,     287,     292
286,     288,     293
287,     289,     294
288,     290,     295
289,     291,     296
290,     292,     297
291,     293,     298
292,     294,     299
293,     295,     300
294,     296,     301
295,     297,     302
296,     298,     205
297,     299,     207
298,     300,     209
299,     301,     211
300,     302,     303
301,     304,     305
302,     306,     307
303,     308,     309
304,     310,     311
305,     312,     313
306,     305,     314
307,     307,     315
308,     309,     316
309,     311,     317
310,     313,     318
311,     314,     319
312,     315,     320
313,     316,     321
314,     317,     322
315,     318,     323
316,     319,     324
317,     320,     325
318,     321,     326
319,     322,     327
320,     323,     328
321,     324,     329
322,     325,     330
323,     326,     331
324,     327,     332
325,     328,     333
326,     329,     334
327,     330,     335
328,     331,     336
329,     332,     337
330,     333,     338
331,     334,     339
332,     335,     340
333,     336,     341
334,     337,     342
335,     338,     343
336,     339,     344
337,     340,     345
338,     341,     346
339,     342,     347
340,     343,     348
341,     344,     349
342,     345,     350
343,     346,     351
344,     347,     352
345,     348,     353
346,     349,     354
347,     350,     355
348,     351,     356
349,     352,     357
350,     353,     358
351,     354,     359
352,     355,     360
353,     356,     361
354,     357,     362
355,     358,     363
356,     359,     364
357,     360,     365
358,     361,     366
359,     362,     367
360,     363,     368
361,     364,     369
362,     365,     370
363,     366,     371
364,     367,     372
365,     368,     373
366,     369,     374
367,     370,     375
368,     371,     376
369,     372,     377
370,     373,     378
371,     374,     379
372,     375,     380
373,     376,     381
374,     377,     382
375,     378,     383
376,     379,     384
377,     380,     385
378,     381,     386
379,     382,     387
380,     383,     388
381,     384,     389
382,     385,     390
383,     386,     391
384,     387,     392
385,     388,     393
386,     389,     394
387,     390,     395
388,     391,     396
389,     392,     397
390,     393,     398
391,     394,     399
392,     395,     400
393,     396,     401
394,     397,     402
395,     398,     403
396,     399,     306
397,     400,     308
398,     401,     310
399,     402,     312
400,     403,     404
401,     405,     406
402,     407,     408
403,     409,     410
404,     411,     412
405,     413,     414
406,     406,     415
407,     408,     416
408,     410,     417
409,     412,     418
410,     414,     419
411,     415,     420
412,     416,     421
413,     417,     422
414,     418,     423
415,     419,     424
416,     420,     425
417,     421,     426
418,     422,     427
419,     423,     428
420,     424,     429
421,     425,     430
422,     426,     431
423,     427,     432
424,     428,     433
425,     429,     434
426,     430,     435
427,     431,     436
428,     432,     437
429,     433,     438
430,     434,     439
431,     435,     440
432,     436,     441
433,     437,     442
434,     438,     443
435,     439,     444
436,     440,     445
437,     441,     446
438,     442,     447
439,     443,     448
440,     444,     449
441,     445,     450
442,     446,     451
443,     447,     452
444,     448,     453
445,     449,     454
446,     450,     455
447,     451,     456
448,     452,     457
449,     453,     458
450,     454,     459
451,     455,     460
452,     456,     461
453,     457,     462
454,     458,     463
455,     459,     464
456,     460,     465
457,     461,     466
458,     462,     467
459,     463,     468
460,     464,     469
461,     465,     470
462,     466,     471
463,     467,     472
464,     468,     473
465,     469,     474
466,     470,     475
467,     471,     476
468,     472,     477
469,     473,     478
470,     474,     479
471,     475,     480
472,     476,     481
473,     477,     482
474,     478,     483
475,     479,     484
476,     480,     485
477,     481,     486
478,     482,     487
479,     483,     488
480,     484,     489
481,     485,     490
482,     486,     491
483,     487,     492
484,     488,     493
485,     489,     494
486,     490,     495
487,     491,     496
488,     492,     497
489,     493,     498
490,     494,     499
491,     495,     500
492,     496,     501
493,     497,     502
494,     498,     503
495,     499,     504
496,     500,     407
497,     501,     409
498,     502,     411
499,     503,     413
500,     504,     505
501,       1,     506
502,       3,     507
503,       5,     508
504,       7,     509
505,       9,     510
506,       2,     511
507,       4,     512
508,       6,     513
509,       8,     514
510,      10,     515
511,      11,     516
512,      12,     517
513,      13,     518
514,      14,     519
515,      15,     520
516,      16,     521
517,      17,     522
518,      18,     523
519,      19,     524
520,      20,     525
521,      21,     526
522,      22,     527
523,      23,     528
524,      24,     529
525,      25,     530
526,      26,     531
527,      27,     532
528,      28,     533
529,      29,     534
530,      30,     535
531,      31,     536
532,      32,     537
533,      33,     538
534,      34,     539
535,      35,     540
536,      36,     541
537,      37,     542
538,      38,     543
539,      39,     544
540,      40,     545
541,      41,     546
542,      42,     547
543,      43,     548
544,      44,     549
545,      45,     550
546,      46,     551
547,      47,     552
548,      48,     553
549,      49,     554
550,      50,     555
551,      51,     556
552,      52,     557
553,      53,     558
554,      54,     559
555,      55,     560
556,      56,     561
557,      57,     562
558,      58,     563
559,      59,     564
560,      60,     565
561,      61,     566
562,      62,     567
563,      63,     568
564,      64,     569
565,      65,     570
566,      66,     571
567,      67,     572
568,      68,     573
569,      69,     574
570,      70,     575
571,      71,     576
572,      72,     577
573,      73,     578
574,      74,     579
575,      75,     580
576,      76,     581
577,      77,     582
578,      78,     583
579,      79,     584
580,      80,     585
581,      81,     586
582,      82,     587
583,      83,     588
584,      84,     589
585,      85,     590
586,      86,     591
587,      87,     592
588,      88,     593
589,      89,     594
590,      90,     595
591,      91,     596
592,      92,     597
593,      93,     598
594,      94,     599
595,      95,     600
596,      96,     601
597,      97,     602
598,      98,     603
599,      99,     604
600,     100,     605
601,     101,     606
602,     102,     607
603,     104,     608
604,     106,     609
605,     108,     610
606,     110,     611
607,     103,     612
608,     105,     613
609,     107,     614
610,     109,     615
611,     111,     616
612,     112,     617
613,     113,     618
614,     114,     619
615,     115,     620
616,     116,     621
617,     117,     622
618,     118,     623
619,     119,     624
620,     120,     625
621,     121,     626
622,     122,     627
623,     123,     628
624,     124,     629
625,     125,     630
626,     126,     631
627,     127,     632
628,     128,     633
629,     129,     634
630,     130,     635
631,     131,     636
632,     132,     637
633,     133,     638
634,     134,     639
635,     135,     640
636,     136,     641
637,     137,     642
638,     138,     643
639,     139,     644
640,     140,     645
641,     141,     646
642,     142,     647
643,     143,     648
644,     144,     649
645,     145,     650
646,     146,     651
647,     147,     652
648,     148,     653
649,     149,     654
650,     150,     655
651,     151,     656
652,     152,     657
653,     153,     658
654,     154,     659
655,     155,     660
656,     156,     661
657,     157,     662
658,     158,     663
659,     159,     664
660,     160,     665
661,     161,     666
662,     162,     667
663,     163,     668
664,     164,     669
665,     165,     670
666,     166,     671
667,     167,     672
668,     168,     673
669,     169,     674
670,     170,     675
671,     171,     676
672,     172,     677
673,     173,     678
674,     174,     679
675,     175,     680
676,     176,     681
677,     177,     682
678,     178,     683
679,     179,     684
680,     180,     685
681,     181,     686
682,     182,     687
683,     183,     688
684,     184,     689
685,     185,     690
686,     186,     691
687,     187,     692
688,     188,     693
689,     189,     694
690,     190,     695
691,     191,     696
692,     192,     697
693,     193,     698
694,     194,     699
695,     195,     700
696,     196,     701
697,     197,     702
698,     198,     703
699,     199,     704
700,     200,     705
701,     201,     706
702,     202,     707
703,     203,     708
704,     205,     709
705,     207,     710
706,     209,     711
707,     211,     712
708,     204,     713
709,     206,     714
710,     208,     715
711,     210,     716
712,     212,     717
713,     213,     718
714,     214,     719
715,     215,     720
716,     216,     721
717,     217,     722
718,     218,     723
719,     219,     724
720,     220,     725
721,     221,     726
722,     222,     727
723,     223,     728
724,     224,     729
725,     225,     730
726,     226,     731
727,     227,     732
728,     228,     733
729,     229,     734
730,     230,     735
731,     231,     736
732,     232,     737
733,     233,     738
734,     234,     739
735,     235,     740
736,     236,     741
737,     237,     742
738,     238,     743
739,     239,     744
740,     240,     745
741,     241,     746
742,     242,     747
743,     243,     748
744,     244,     749
745,     245,     750
746,     246,     751
747,     247,     752
748,     248,     753
749,     249,     754
750,     250,     755
751,     251,     756
752,     252,     757
753,     253,     758
754,     254,     759
755,     255,     760
756,     256,     761
757,     257,     762
758,     258,     763
759,     259,     764
760,     260,     765
761,     261,     766
762,     262,     767
763,     263,     768
764,     264,     769
765,     265,     770
766,     266,     771
767,     267,     772
768,     268,     773
769,     269,     774
770,     270,     775
771,     271,     776
772,     272,     777
773,     273,     778
774,     274,     779
775,     275,     780
776,     276,     781
777,     277,     782
778,     278,     783
779,     279,     784
780,     280,     785
781,     281,     786
782,     282,     787
783,     283,     788
784,     284,     789
785,     285,     790
786,     286,     791
787,     287,     792
788,     288,     793
789,     289,     794
790,     290,     795
791,     291,     796
792,     292,     797
793,     293,     798
794,     294,     799
795,     295,     800
796,     296,     801
797,     297,     802
798,     298,     803
799,     299,     804
800,     300,     805
801,     301,     806
802,     302,     807
803,     303,     808
804,     304,     809
805,     306,     810
806,     308,     811
807,     310,     812
808,     312,     813
809,     305,     814
810,     307,     815
811,     309,     816
812,     311,     817
813,     313,     818
814,     314,     819
815,     315,     820
816,     316,     821
817,     317,     822
818,     318,     823
819,     319,     824
820,     320,     825
821,     321,     826
822,     322,     827
823,     323,     828
824,     324,     829
825,     325,     830
826,     326,     831
827,     327,     832
828,     328,     833
829,     329,     834
830,     330,     835
831,     331,     836
832,     332,     837
833,     333,     838
834,     334,     839
835,     335,     840
836,     336,     841
837,     337,     842
838,     338,     843
839,     339,     844
840,     340,     845
841,     341,     846
842,     342,     847
843,     343,     848
844,     344,     849
845,     345,     850
846,     346,     851
847,     347,     852
848,     348,     853
849,     349,     854
850,     350,     855
851,     351,     856
852,     352,     857
853,     353,     858
854,     354,     859
855,     355,     860
856,     356,     861
857,     357,     862
858,     358,     863
859,     359,     864
860,     360,     865
861,     361,     866
862,     362,     867
863,     363,     868
864,     364,     869
865,     365,     870
866,     366,     871
867,     367,     872
868,     368,     873
869,     369,     874
870,     370,     875
871,     371,     876
872,     372,     877
873,     373,     878
874,     374,     879
875,     375,     880
876,     376,     881
877,     377,     882
878,     378,     883
879,     379,     884
880,     380,     885
881,     381,     886
882,     382,     887
883,     383,     888
884,     384,     889
885,     385,     890
886,     386,     891
887,     387,     892
888,     388,     893
889,     389,     894
890,     390,     895
891,     391,     896
892,     392,     897
893,     393,     898
894,     394,     899
895,     395,     900
896,     396,     901
897,     397,     902
898,     398,     903
899,     399,     904
900,     400,     905
901,     401,     906
902,     402,     907
903,     403,     908
904,     404,     909
905,     405,     910
906,     407,     911
907,     409,     912
908,     411,     913
909,     413,     914
910,     406,     915
911,     408,     916
912,     410,     917
913,     412,     918
914,     414,     919
915,     415,     920
916,     416,     921
917,     417,     922
918,     418,     923
919,     419,     924
920,     420,     925
921,     421,     926
922,     422,     927
923,     423,     928
924,     424,     929
925,     425,     930
926,     426,     931
927,     427,     932
928,     428,     933
929,     429,     934
930,     430,     935
931,     431,     936
932,     432,     937
933,     433,     938
934,     434,     939
935,     435,     940
936,     436,     941
937,     437,     942
938,     438,     943
939,     439,     944
940,     440,     945
941,     441,     946
942,     442,     947
943,     443,     948
944,     444,     949
945,     445,     950
946,     446,     951
947,     447,     952
948,     448,     953
949,     449,     954
950,     450,     955
951,     451,     956
952,     452,     957
953,     453,     958
954,     454,     959
955,     455,     960
956,     456,     961
957,     457,     962
958,     458,     963
959,     459,     964
960,     460,     965
961,     461,     966
962,     462,     967
963,     463,     968
964,     464,     969
965,     465,     970
966,     466,     971
967,     467,     972
968,     468,     973
969,     469,     974
970,     470,     975
971,     471,     976
972,     472,     977
973,     473,     978
974,     474,     979
975,     475,     980
976,     476,     981
977,     477,     982
978,     478,     983
979,     479,     984
980,     480,     985
981,     481,     986
982,     482,     987
983,     483,     988
984,     484,     989
985,     485,     990
986,     486,     991
987,     487,     992
988,     488,     993
989,     489,     994
990,     490,     995
991,     491,     996
992,     492,     997
993,     493,     998
994,     494,     999
995,     495,    1000
996,     496,    1001
997,     497,    1002
998,     498,    1003
999,     499,    1004
1000,     500,    1005
1001,     501,    1006
1002,     502,    1007
1003,     503,    1008
1004,     504,    1009
1005,     505,    1010

*ELEMENT,  TYPE=S4R
1006,    1011,    1012,    1013,    1014
1007,    1015,    1016,    1017,    1018
1008,    1019,    1020,    1021,    1022
1009,    1023,    1024,    1025,    1026
1010,    1027,    1028,    1029,    1030
1011,    1012,     915,     910,    1013
1012,    1016,     916,     911,    1017
1013,    1020,     917,     912,    1021
1014,    1024,     918,     913,    1025
1015,    1028,     919,     914,    1029
1016,     915,    1031,    1032,     910
1017,     916,    1033,    1034,     911
1018,     917,    1035,    1036,     912
1019,     918,    1037,    1038,     913
1020,     919,    1039,    1040,     914
1021,    1031,     814,     809,    1032
1022,    1033,     815,     810,    1034
1023,    1035,     816,     811,    1036
1024,    1037,     817,     812,    1038
1025,    1039,     818,     813,    1040
1026,     814,    1041,    1042,     809
1027,     815,    1043,    1044,     810
1028,     816,    1045,    1046,     811
1029,     817,    1047,    1048,     812
1030,     818,    1049,    1050,     813
1031,    1041,    1051,    1052,    1042
1032,    1043,    1053,    1054,    1044
1033,    1045,    1055,    1056,    1046
1034,    1047,    1057,    1058,    1048
1035,    1049,    1059,    1060,    1050
1036,    1051,    1061,    1062,    1052
1037,    1053,    1063,    1064,    1054
1038,    1055,    1065,    1066,    1056
1039,    1057,    1067,    1068,    1058
1040,    1059,    1069,    1070,    1060
1041,    1061,     612,     607,    1062
1042,    1063,     613,     608,    1064
1043,    1065,     614,     609,    1066
1044,    1067,     615,     610,    1068
1045,    1069,     616,     611,    1070
1046,     612,    1071,    1072,     607
1047,     613,    1073,    1074,     608
1048,     614,    1075,    1076,     609
1049,     615,    1077,    1078,     610
1050,     616,    1079,    1080,     611
1051,    1071,     713,     708,    1072
1052,    1073,     714,     709,    1074
1053,    1075,     715,     710,    1076
1054,    1077,     716,     711,    1078
1055,    1079,     717,     712,    1080
1056,     713,    1081,    1082,     708
1057,     714,    1083,    1084,     709
1058,     715,    1085,    1086,     710
1059,     716,    1087,    1088,     711
1060,     717,    1089,    1090,     712
1061,    1081,    1091,    1092,    1082
1062,    1083,    1093,    1094,    1084
1063,    1085,    1095,    1096,    1086
1064,    1087,    1097,    1098,    1088
1065,    1089,    1099,    1100,    1090
1066,    1101,    1102,    1012,    1011
1067,    1103,    1104,    1016,    1015
1068,    1105,    1106,    1020,    1019
1069,    1107,    1108,    1024,    1023
1070,    1109,    1110,    1028,    1027
1071,    1102,     920,     915,    1012
1072,    1104,     921,     916,    1016
1073,    1106,     922,     917,    1020
1074,    1108,     923,     918,    1024
1075,    1110,     924,     919,    1028
1076,     920,    1111,    1031,     915
1077,     921,    1112,    1033,     916
1078,     922,    1113,    1035,     917
1079,     923,    1114,    1037,     918
1080,     924,    1115,    1039,     919
1081,    1111,     819,     814,    1031
1082,    1112,     820,     815,    1033
1083,    1113,     821,     816,    1035
1084,    1114,     822,     817,    1037
1085,    1115,     823,     818,    1039
1086,     819,    1116,    1041,     814
1087,     820,    1117,    1043,     815
1088,     821,    1118,    1045,     816
1089,     822,    1119,    1047,     817
1090,     823,    1120,    1049,     818
1091,    1116,    1121,    1051,    1041
1092,    1117,    1122,    1053,    1043
1093,    1118,    1123,    1055,    1045
1094,    1119,    1124,    1057,    1047
1095,    1120,    1125,    1059,    1049
1096,    1121,    1126,    1061,    1051
1097,    1122,    1127,    1063,    1053
1098,    1123,    1128,    1065,    1055
1099,    1124,    1129,    1067,    1057
1100,    1125,    1130,    1069,    1059
1101,    1126,     617,     612,    1061
1102,    1127,     618,     613,    1063
1103,    1128,     619,     614,    1065
1104,    1129,     620,     615,    1067
1105,    1130,     621,     616,    1069
1106,     617,    1131,    1071,     612
1107,     618,    1132,    1073,     613
1108,     619,    1133,    1075,     614
1109,     620,    1134,    1077,     615
1110,     621,    1135,    1079,     616
1111,    1131,     718,     713,    1071
1112,    1132,     719,     714,    1073
1113,    1133,     720,     715,    1075
1114,    1134,     721,     716,    1077
1115,    1135,     722,     717,    1079
1116,     718,    1136,    1081,     713
1117,     719,    1137,    1083,     714
1118,     720,    1138,    1085,     715
1119,     721,    1139,    1087,     716
1120,     722,    1140,    1089,     717
1121,    1136,    1141,    1091,    1081
1122,    1137,    1142,    1093,    1083
1123,    1138,    1143,    1095,    1085
1124,    1139,    1144,    1097,    1087
1125,    1140,    1145,    1099,    1089
1126,    1146,    1147,    1102,    1101
1127,    1148,    1149,    1104,    1103
1128,    1150,    1151,    1106,    1105
1129,    1152,    1153,    1108,    1107
1130,    1154,    1155,    1110,    1109
1131,    1147,     925,     920,    1102
1132,    1149,     926,     921,    1104
1133,    1151,     927,     922,    1106
1134,    1153,     928,     923,    1108
1135,    1155,     929,     924,    1110
1136,     925,    1156,    1111,     920
1137,     926,    1157,    1112,     921
1138,     927,    1158,    1113,     922
1139,     928,    1159,    1114,     923
1140,     929,    1160,    1115,     924
1141,    1156,     824,     819,    1111
1142,    1157,     825,     820,    1112
1143,    1158,     826,     821,    1113
1144,    1159,     827,     822,    1114
1145,    1160,     828,     823,    1115
1146,     824,    1161,    1116,     819
1147,     825,    1162,    1117,     820
1148,     826,    1163,    1118,     821
1149,     827,    1164,    1119,     822
1150,     828,    1165,    1120,     823
1151,    1161,    1166,    1121,    1116
1152,    1162,    1167,    1122,    1117
1153,    1163,    1168,    1123,    1118
1154,    1164,    1169,    1124,    1119
1155,    1165,    1170,    1125,    1120
1156,    1166,    1171,    1126,    1121
1157,    1167,    1172,    1127,    1122
1158,    1168,    1173,    1128,    1123
1159,    1169,    1174,    1129,    1124
1160,    1170,    1175,    1130,    1125
1161,    1171,     622,     617,    1126
1162,    1172,     623,     618,    1127
1163,    1173,     624,     619,    1128
1164,    1174,     625,     620,    1129
1165,    1175,     626,     621,    1130
1166,     622,    1176,    1131,     617
1167,     623,    1177,    1132,     618
1168,     624,    1178,    1133,     619
1169,     625,    1179,    1134,     620
1170,     626,    1180,    1135,     621
1171,    1176,     723,     718,    1131
1172,    1177,     724,     719,    1132
1173,    1178,     725,     720,    1133
1174,    1179,     726,     721,    1134
1175,    1180,     727,     722,    1135
1176,     723,    1181,    1136,     718
1177,     724,    1182,    1137,     719
1178,     725,    1183,    1138,     720
1179,     726,    1184,    1139,     721
1180,     727,    1185,    1140,     722
1181,    1181,    1186,    1141,    1136
1182,    1182,    1187,    1142,    1137
1183,    1183,    1188,    1143,    1138
1184,    1184,    1189,    1144,    1139
1185,    1185,    1190,    1145,    1140
1186,    1191,    1192,    1147,    1146
1187,    1193,    1194,    1149,    1148
1188,    1195,    1196,    1151,    1150
1189,    1197,    1198,    1153,    1152
1190,    1199,    1200,    1155,    1154
1191,    1192,     930,     925,    1147
1192,    1194,     931,     926,    1149
1193,    1196,     932,     927,    1151
1194,    1198,     933,     928,    1153
1195,    1200,     934,     929,    1155
1196,     930,    1201,    1156,     925
1197,     931,    1202,    1157,     926
1198,     932,    1203,    1158,     927
1199,     933,    1204,    1159,     928
1200,     934,    1205,    1160,     929
1201,    1201,     829,     824,    1156
1202,    1202,     830,     825,    1157
1203,    1203,     831,     826,    1158
1204,    1204,     832,     827,    1159
1205,    1205,     833,     828,    1160
1206,     829,    1206,    1161,     824
1207,     830,    1207,    1162,     825
1208,     831,    1208,    1163,     826
1209,     832,    1209,    1164,     827
1210,     833,    1210,    1165,     828
1211,    1206,    1211,    1166,    1161
1212,    1207,    1212,    1167,    1162
1213,    1208,    1213,    1168,    1163
1214,    1209,    1214,    1169,    1164
1215,    1210,    1215,    1170,    1165
1216,    1211,    1216,    1171,    1166
1217,    1212,    1217,    1172,    1167
1218,    1213,    1218,    1173,    1168
1219,    1214,    1219,    1174,    1169
1220,    1215,    1220,    1175,    1170
1221,    1216,     627,     622,    1171
1222,    1217,     628,     623,    1172
1223,    1218,     629,     624,    1173
1224,    1219,     630,     625,    1174
1225,    1220,     631,     626,    1175
1226,     627,    1221,    1176,     622
1227,     628,    1222,    1177,     623
1228,     629,    1223,    1178,     624
1229,     630,    1224,    1179,     625
1230,     631,    1225,    1180,     626
1231,    1221,     728,     723,    1176
1232,    1222,     729,     724,    1177
1233,    1223,     730,     725,    1178
1234,    1224,     731,     726,    1179
1235,    1225,     732,     727,    1180
1236,     728,    1226,    1181,     723
1237,     729,    1227,    1182,     724
1238,     730,    1228,    1183,     725
1239,     731,    1229,    1184,     726
1240,     732,    1230,    1185,     727
1241,    1226,    1231,    1186,    1181
1242,    1227,    1232,    1187,    1182
1243,    1228,    1233,    1188,    1183
1244,    1229,    1234,    1189,    1184
1245,    1230,    1235,    1190,    1185
1246,    1236,    1237,    1192,    1191
1247,    1238,    1239,    1194,    1193
1248,    1240,    1241,    1196,    1195
1249,    1242,    1243,    1198,    1197
1250,    1244,    1245,    1200,    1199
1251,    1237,     935,     930,    1192
1252,    1239,     936,     931,    1194
1253,    1241,     937,     932,    1196
1254,    1243,     938,     933,    1198
1255,    1245,     939,     934,    1200
1256,     935,    1246,    1201,     930
1257,     936,    1247,    1202,     931
1258,     937,    1248,    1203,     932
1259,     938,    1249,    1204,     933
1260,     939,    1250,    1205,     934
1261,    1246,     834,     829,    1201
1262,    1247,     835,     830,    1202
1263,    1248,     836,     831,    1203
1264,    1249,     837,     832,    1204
1265,    1250,     838,     833,    1205
1266,     834,    1251,    1206,     829
1267,     835,    1252,    1207,     830
1268,     836,    1253,    1208,     831
1269,     837,    1254,    1209,     832
1270,     838,    1255,    1210,     833
1271,    1251,    1256,    1211,    1206
1272,    1252,    1257,    1212,    1207
1273,    1253,    1258,    1213,    1208
1274,    1254,    1259,    1214,    1209
1275,    1255,    1260,    1215,    1210
1276,    1256,    1261,    1216,    1211
1277,    1257,    1262,    1217,    1212
1278,    1258,    1263,    1218,    1213
1279,    1259,    1264,    1219,    1214
1280,    1260,    1265,    1220,    1215
1281,    1261,     632,     627,    1216
1282,    1262,     633,     628,    1217
1283,    1263,     634,     629,    1218
1284,    1264,     635,     630,    1219
1285,    1265,     636,     631,    1220
1286,     632,    1266,    1221,     627
1287,     633,    1267,    1222,     628
1288,     634,    1268,    1223,     629
1289,     635,    1269,    1224,     630
1290,     636,    1270,    1225,     631
1291,    1266,     733,     728,    1221
1292,    1267,     734,     729,    1222
1293,    1268,     735,     730,    1223
1294,    1269,     736,     731,    1224
1295,    1270,     737,     732,    1225
1296,     733,    1271,    1226,     728
1297,     734,    1272,    1227,     729
1298,     735,    1273,    1228,     730
1299,     736,    1274,    1229,     731
1300,     737,    1275,    1230,     732
1301,    1271,    1276,    1231,    1226
1302,    1272,    1277,    1232,    1227
1303,    1273,    1278,    1233,    1228
1304,    1274,    1279,    1234,    1229
1305,    1275,    1280,    1235,    1230
1306,    1281,    1282,    1237,    1236
1307,    1283,    1284,    1239,    1238
1308,    1285,    1286,    1241,    1240
1309,    1287,    1288,    1243,    1242
1310,    1289,    1290,    1245,    1244
1311,    1282,     940,     935,    1237
1312,    1284,     941,     936,    1239
1313,    1286,     942,     937,    1241
1314,    1288,     943,     938,    1243
1315,    1290,     944,     939,    1245
1316,     940,    1291,    1246,     935
1317,     941,    1292,    1247,     936
1318,     942,    1293,    1248,     937
1319,     943,    1294,    1249,     938
1320,     944,    1295,    1250,     939
1321,    1291,     839,     834,    1246
1322,    1292,     840,     835,    1247
1323,    1293,     841,     836,    1248
1324,    1294,     842,     837,    1249
1325,    1295,     843,     838,    1250
1326,     839,    1296,    1251,     834
1327,     840,    1297,    1252,     835
1328,     841,    1298,    1253,     836
1329,     842,    1299,    1254,     837
1330,     843,    1300,    1255,     838
1331,    1296,    1301,    1256,    1251
1332,    1297,    1302,    1257,    1252
1333,    1298,    1303,    1258,    1253
1334,    1299,    1304,    1259,    1254
1335,    1300,    1305,    1260,    1255
1336,    1301,    1306,    1261,    1256
1337,    1302,    1307,    1262,    1257
1338,    1303,    1308,    1263,    1258
1339,    1304,    1309,    1264,    1259
1340,    1305,    1310,    1265,    1260
1341,    1306,     637,     632,    1261
1342,    1307,     638,     633,    1262
1343,    1308,     639,     634,    1263
1344,    1309,     640,     635,    1264
1345,    1310,     641,     636,    1265
1346,     637,    1311,    1266,     632
1347,     638,    1312,    1267,     633
1348,     639,    1313,    1268,     634
1349,     640,    1314,    1269,     635
1350,     641,    1315,    1270,     636
1351,    1311,     738,     733,    1266
1352,    1312,     739,     734,    1267
1353,    1313,     740,     735,    1268
1354,    1314,     741,     736,    1269
1355,    1315,     742,     737,    1270
1356,     738,    1316,    1271,     733
1357,     739,    1317,    1272,     734
1358,     740,    1318,    1273,     735
1359,     741,    1319,    1274,     736
1360,     742,    1320,    1275,     737
1361,    1316,    1321,    1276,    1271
1362,    1317,    1322,    1277,    1272
1363,    1318,    1323,    1278,    1273
1364,    1319,    1324,    1279,    1274
1365,    1320,    1325,    1280,    1275
1366,    1326,    1327,    1282,    1281
1367,    1328,    1329,    1284,    1283
1368,    1330,    1331,    1286,    1285
1369,    1332,    1333,    1288,    1287
1370,    1334,    1335,    1290,    1289
1371,    1327,     945,     940,    1282
1372,    1329,     946,     941,    1284
1373,    1331,     947,     942,    1286
1374,    1333,     948,     943,    1288
1375,    1335,     949,     944,    1290
1376,     945,    1336,    1291,     940
1377,     946,    1337,    1292,     941
1378,     947,    1338,    1293,     942
1379,     948,    1339,    1294,     943
1380,     949,    1340,    1295,     944
1381,    1336,     844,     839,    1291
1382,    1337,     845,     840,    1292
1383,    1338,     846,     841,    1293
1384,    1339,     847,     842,    1294
1385,    1340,     848,     843,    1295
1386,     844,    1341,    1296,     839
1387,     845,    1342,    1297,     840
1388,     846,    1343,    1298,     841
1389,     847,    1344,    1299,     842
1390,     848,    1345,    1300,     843
1391,    1341,    1346,    1301,    1296
1392,    1342,    1347,    1302,    1297
1393,    1343,    1348,    1303,    1298
1394,    1344,    1349,    1304,    1299
1395,    1345,    1350,    1305,    1300
1396,    1346,    1351,    1306,    1301
1397,    1347,    1352,    1307,    1302
1398,    1348,    1353,    1308,    1303
1399,    1349,    1354,    1309,    1304
1400,    1350,    1355,    1310,    1305
1401,    1351,     642,     637,    1306
1402,    1352,     643,     638,    1307
1403,    1353,     644,     639,    1308
1404,    1354,     645,     640,    1309
1405,    1355,     646,     641,    1310
1406,     642,    1356,    1311,     637
1407,     643,    1357,    1312,     638
1408,     644,    1358,    1313,     639
1409,     645,    1359,    1314,     640
1410,     646,    1360,    1315,     641
1411,    1356,     743,     738,    1311
1412,    1357,     744,     739,    1312
1413,    1358,     745,     740,    1313
1414,    1359,     746,     741,    1314
1415,    1360,     747,     742,    1315
1416,     743,    1361,    1316,     738
1417,     744,    1362,    1317,     739
1418,     745,    1363,    1318,     740
1419,     746,    1364,    1319,     741
1420,     747,    1365,    1320,     742
1421,    1361,    1366,    1321,    1316
1422,    1362,    1367,    1322,    1317
1423,    1363,    1368,    1323,    1318
1424,    1364,    1369,    1324,    1319
1425,    1365,    1370,    1325,    1320
1426,    1371,    1372,    1327,    1326
1427,    1373,    1374,    1329,    1328
1428,    1375,    1376,    1331,    1330
1429,    1377,    1378,    1333,    1332
1430,    1379,    1380,    1335,    1334
1431,    1372,     950,     945,    1327
1432,    1374,     951,     946,    1329
1433,    1376,     952,     947,    1331
1434,    1378,     953,     948,    1333
1435,    1380,     954,     949,    1335
1436,     950,    1381,    1336,     945
1437,     951,    1382,    1337,     946
1438,     952,    1383,    1338,     947
1439,     953,    1384,    1339,     948
1440,     954,    1385,    1340,     949
1441,    1381,     849,     844,    1336
1442,    1382,     850,     845,    1337
1443,    1383,     851,     846,    1338
1444,    1384,     852,     847,    1339
1445,    1385,     853,     848,    1340
1446,     849,    1386,    1341,     844
1447,     850,    1387,    1342,     845
1448,     851,    1388,    1343,     846
1449,     852,    1389,    1344,     847
1450,     853,    1390,    1345,     848
1451,    1386,    1391,    1346,    1341
1452,    1387,    1392,    1347,    1342
1453,    1388,    1393,    1348,    1343
1454,    1389,    1394,    1349,    1344
1455,    1390,    1395,    1350,    1345
1456,    1391,    1396,    1351,    1346
1457,    1392,    1397,    1352,    1347
1458,    1393,    1398,    1353,    1348
1459,    1394,    1399,    1354,    1349
1460,    1395,    1400,    1355,    1350
1461,    1396,     647,     642,    1351
1462,    1397,     648,     643,    1352
1463,    1398,     649,     644,    1353
1464,    1399,     650,     645,    1354
1465,    1400,     651,     646,    1355
1466,     647,    1401,    1356,     642
1467,     648,    1402,    1357,     643
1468,     649,    1403,    1358,     644
1469,     650,    1404,    1359,     645
1470,     651,    1405,    1360,     646
1471,    1401,     748,     743,    1356
1472,    1402,     749,     744,    1357
1473,    1403,     750,     745,    1358
1474,    1404,     751,     746,    1359
1475,    1405,     752,     747,    1360
1476,     748,    1406,    1361,     743
1477,     749,    1407,    1362,     744
1478,     750,    1408,    1363,     745
1479,     751,    1409,    1364,     746
1480,     752,    1410,    1365,     747
1481,    1406,    1411,    1366,    1361
1482,    1407,    1412,    1367,    1362
1483,    1408,    1413,    1368,    1363
1484,    1409,    1414,    1369,    1364
1485,    1410,    1415,    1370,    1365
1486,    1416,    1417,    1372,    1371
1487,    1418,    1419,    1374,    1373
1488,    1420,    1421,    1376,    1375
1489,    1422,    1423,    1378,    1377
1490,    1424,    1425,    1380,    1379
1491,    1417,     955,     950,    1372
1492,    1419,     956,     951,    1374
1493,    1421,     957,     952,    1376
1494,    1423,     958,     953,    1378
1495,    1425,     959,     954,    1380
1496,     955,    1426,    1381,     950
1497,     956,    1427,    1382,     951
1498,     957,    1428,    1383,     952
1499,     958,    1429,    1384,     953
1500,     959,    1430,    1385,     954
1501,    1426,     854,     849,    1381
1502,    1427,     855,     850,    1382
1503,    1428,     856,     851,    1383
1504,    1429,     857,     852,    1384
1505,    1430,     858,     853,    1385
1506,     854,    1431,    1386,     849
1507,     855,    1432,    1387,     850
1508,     856,    1433,    1388,     851
1509,     857,    1434,    1389,     852
1510,     858,    1435,    1390,     853
1511,    1431,    1436,    1391,    1386
1512,    1432,    1437,    1392,    1387
1513,    1433,    1438,    1393,    1388
1514,    1434,    1439,    1394,    1389
1515,    1435,    1440,    1395,    1390
1516,    1436,    1441,    1396,    1391
1517,    1437,    1442,    1397,    1392
1518,    1438,    1443,    1398,    1393
1519,    1439,    1444,    1399,    1394
1520,    1440,    1445,    1400,    1395
1521,    1441,     652,     647,    1396
1522,    1442,     653,     648,    1397
1523,    1443,     654,     649,    1398
1524,    1444,     655,     650,    1399
1525,    1445,     656,     651,    1400
1526,     652,    1446,    1401,     647
1527,     653,    1447,    1402,     648
1528,     654,    1448,    1403,     649
1529,     655,    1449,    1404,     650
1530,     656,    1450,    1405,     651
1531,    1446,     753,     748,    1401
1532,    1447,     754,     749,    1402
1533,    1448,     755,     750,    1403
1534,    1449,     756,     751,    1404
1535,    1450,     757,     752,    1405
1536,     753,    1451,    1406,     748
1537,     754,    1452,    1407,     749
1538,     755,    1453,    1408,     750
1539,     756,    1454,    1409,     751
1540,     757,    1455,    1410,     752
1541,    1451,    1456,    1411,    1406
1542,    1452,    1457,    1412,    1407
1543,    1453,    1458,    1413,    1408
1544,    1454,    1459,    1414,    1409
1545,    1455,    1460,    1415,    1410
1546,    1461,    1462,    1417,    1416
1547,    1463,    1464,    1419,    1418
1548,    1465,    1466,    1421,    1420
1549,    1467,    1468,    1423,    1422
1550,    1469,    1470,    1425,    1424
1551,    1462,     960,     955,    1417
1552,    1464,     961,     956,    1419
1553,    1466,     962,     957,    1421
1554,    1468,     963,     958,    1423
1555,    1470,     964,     959,    1425
1556,     960,    1471,    1426,     955
1557,     961,    1472,    1427,     956
1558,     962,    1473,    1428,     957
1559,     963,    1474,    1429,     958
1560,     964,    1475,    1430,     959
1561,    1471,     859,     854,    1426
1562,    1472,     860,     855,    1427
1563,    1473,     861,     856,    1428
1564,    1474,     862,     857,    1429
1565,    1475,     863,     858,    1430
1566,     859,    1476,    1431,     854
1567,     860,    1477,    1432,     855
1568,     861,    1478,    1433,     856
1569,     862,    1479,    1434,     857
1570,     863,    1480,    1435,     858
1571,    1476,    1481,    1436,    1431
1572,    1477,    1482,    1437,    1432
1573,    1478,    1483,    1438,    1433
1574,    1479,    1484,    1439,    1434
1575,    1480,    1485,    1440,    1435
1576,    1481,    1486,    1441,    1436
1577,    1482,    1487,    1442,    1437
1578,    1483,    1488,    1443,    1438
1579,    1484,    1489,    1444,    1439
1580,    1485,    1490,    1445,    1440
1581,    1486,     657,     652,    1441
1582,    1487,     658,     653,    1442
1583,    1488,     659,     654,    1443
1584,    1489,     660,     655,    1444
1585,    1490,     661,     656,    1445
1586,     657,    1491,    1446,     652
1587,     658,    1492,    1447,     653
1588,     659,    1493,    1448,     654
1589,     660,    1494,    1449,     655
1590,     661,    1495,    1450,     656
1591,    1491,     758,     753,    1446
1592,    1492,     759,     754,    1447
1593,    1493,     760,     755,    1448
1594,    1494,     761,     756,    1449
1595,    1495,     762,     757,    1450
1596,     758,    1496,    1451,     753
1597,     759,    1497,    1452,     754
1598,     760,    1498,    1453,     755
1599,     761,    1499,    1454,     756
1600,     762,    1500,    1455,     757
1601,    1496,    1501,    1456,    1451
1602,    1497,    1502,    1457,    1452
1603,    1498,    1503,    1458,    1453
1604,    1499,    1504,    1459,    1454
1605,    1500,    1505,    1460,    1455
1606,    1506,    1507,    1462,    1461
1607,    1508,    1509,    1464,    1463
1608,    1510,    1511,    1466,    1465
1609,    1512,    1513,    1468,    1467
1610,    1514,    1515,    1470,    1469
1611,    1507,     965,     960,    1462
1612,    1509,     966,     961,    1464
1613,    1511,     967,     962,    1466
1614,    1513,     968,     963,    1468
1615,    1515,     969,     964,    1470
1616,     965,    1516,    1471,     960
1617,     966,    1517,    1472,     961
1618,     967,    1518,    1473,     962
1619,     968,    1519,    1474,     963
1620,     969,    1520,    1475,     964
1621,    1516,     864,     859,    1471
1622,    1517,     865,     860,    1472
1623,    1518,     866,     861,    1473
1624,    1519,     867,     862,    1474
1625,    1520,     868,     863,    1475
1626,     864,    1521,    1476,     859
1627,     865,    1522,    1477,     860
1628,     866,    1523,    1478,     861
1629,     867,    1524,    1479,     862
1630,     868,    1525,    1480,     863
1631,    1521,    1526,    1481,    1476
1632,    1522,    1527,    1482,    1477
1633,    1523,    1528,    1483,    1478
1634,    1524,    1529,    1484,    1479
1635,    1525,    1530,    1485,    1480
1636,    1526,    1531,    1486,    1481
1637,    1527,    1532,    1487,    1482
1638,    1528,    1533,    1488,    1483
1639,    1529,    1534,    1489,    1484
1640,    1530,    1535,    1490,    1485
1641,    1531,     662,     657,    1486
1642,    1532,     663,     658,    1487
1643,    1533,     664,     659,    1488
1644,    1534,     665,     660,    1489
1645,    1535,     666,     661,    1490
1646,     662,    1536,    1491,     657
1647,     663,    1537,    1492,     658
1648,     664,    1538,    1493,     659
1649,     665,    1539,    1494,     660
1650,     666,    1540,    1495,     661
1651,    1536,     763,     758,    1491
1652,    1537,     764,     759,    1492
1653,    1538,     765,     760,    1493
1654,    1539,     766,     761,    1494
1655,    1540,     767,     762,    1495
1656,     763,    1541,    1496,     758
1657,     764,    1542,    1497,     759
1658,     765,    1543,    1498,     760
1659,     766,    1544,    1499,     761
1660,     767,    1545,    1500,     762
1661,    1541,    1546,    1501,    1496
1662,    1542,    1547,    1502,    1497
1663,    1543,    1548,    1503,    1498
1664,    1544,    1549,    1504,    1499
1665,    1545,    1550,    1505,    1500
1666,    1551,    1552,    1507,    1506
1667,    1553,    1554,    1509,    1508
1668,    1555,    1556,    1511,    1510
1669,    1557,    1558,    1513,    1512
1670,    1559,    1560,    1515,    1514
1671,    1552,     970,     965,    1507
1672,    1554,     971,     966,    1509
1673,    1556,     972,     967,    1511
1674,    1558,     973,     968,    1513
1675,    1560,     974,     969,    1515
1676,     970,    1561,    1516,     965
1677,     971,    1562,    1517,     966
1678,     972,    1563,    1518,     967
1679,     973,    1564,    1519,     968
1680,     974,    1565,    1520,     969
1681,    1561,     869,     864,    1516
1682,    1562,     870,     865,    1517
1683,    1563,     871,     866,    1518
1684,    1564,     872,     867,    1519
1685,    1565,     873,     868,    1520
1686,     869,    1566,    1521,     864
1687,     870,    1567,    1522,     865
1688,     871,    1568,    1523,     866
1689,     872,    1569,    1524,     867
1690,     873,    1570,    1525,     868
1691,    1566,    1571,    1526,    1521
1692,    1567,    1572,    1527,    1522
1693,    1568,    1573,    1528,    1523
1694,    1569,    1574,    1529,    1524
1695,    1570,    1575,    1530,    1525
1696,    1571,    1576,    1531,    1526
1697,    1572,    1577,    1532,    1527
1698,    1573,    1578,    1533,    1528
1699,    1574,    1579,    1534,    1529
1700,    1575,    1580,    1535,    1530
1701,    1576,     667,     662,    1531
1702,    1577,     668,     663,    1532
1703,    1578,     669,     664,    1533
1704,    1579,     670,     665,    1534
1705,    1580,     671,     666,    1535
1706,     667,    1581,    1536,     662
1707,     668,    1582,    1537,     663
1708,     669,    1583,    1538,     664
1709,     670,    1584,    1539,     665
1710,     671,    1585,    1540,     666
1711,    1581,     768,     763,    1536
1712,    1582,     769,     764,    1537
1713,    1583,     770,     765,    1538
1714,    1584,     771,     766,    1539
1715,    1585,     772,     767,    1540
1716,     768,    1586,    1541,     763
1717,     769,    1587,    1542,     764
1718,     770,    1588,    1543,     765
1719,     771,    1589,    1544,     766
1720,     772,    1590,    1545,     767
1721,    1586,    1591,    1546,    1541
1722,    1587,    1592,    1547,    1542
1723,    1588,    1593,    1548,    1543
1724,    1589,    1594,    1549,    1544
1725,    1590,    1595,    1550,    1545
1726,    1596,    1597,    1552,    1551
1727,    1598,    1599,    1554,    1553
1728,    1600,    1601,    1556,    1555
1729,    1602,    1603,    1558,    1557
1730,    1604,    1605,    1560,    1559
1731,    1597,     975,     970,    1552
1732,    1599,     976,     971,    1554
1733,    1601,     977,     972,    1556
1734,    1603,     978,     973,    1558
1735,    1605,     979,     974,    1560
1736,     975,    1606,    1561,     970
1737,     976,    1607,    1562,     971
1738,     977,    1608,    1563,     972
1739,     978,    1609,    1564,     973
1740,     979,    1610,    1565,     974
1741,    1606,     874,     869,    1561
1742,    1607,     875,     870,    1562
1743,    1608,     876,     871,    1563
1744,    1609,     877,     872,    1564
1745,    1610,     878,     873,    1565
1746,     874,    1611,    1566,     869
1747,     875,    1612,    1567,     870
1748,     876,    1613,    1568,     871
1749,     877,    1614,    1569,     872
1750,     878,    1615,    1570,     873
1751,    1611,    1616,    1571,    1566
1752,    1612,    1617,    1572,    1567
1753,    1613,    1618,    1573,    1568
1754,    1614,    1619,    1574,    1569
1755,    1615,    1620,    1575,    1570
1756,    1616,    1621,    1576,    1571
1757,    1617,    1622,    1577,    1572
1758,    1618,    1623,    1578,    1573
1759,    1619,    1624,    1579,    1574
1760,    1620,    1625,    1580,    1575
1761,    1621,     672,     667,    1576
1762,    1622,     673,     668,    1577
1763,    1623,     674,     669,    1578
1764,    1624,     675,     670,    1579
1765,    1625,     676,     671,    1580
1766,     672,    1626,    1581,     667
1767,     673,    1627,    1582,     668
1768,     674,    1628,    1583,     669
1769,     675,    1629,    1584,     670
1770,     676,    1630,    1585,     671
1771,    1626,     773,     768,    1581
1772,    1627,     774,     769,    1582
1773,    1628,     775,     770,    1583
1774,    1629,     776,     771,    1584
1775,    1630,     777,     772,    1585
1776,     773,    1631,    1586,     768
1777,     774,    1632,    1587,     769
1778,     775,    1633,    1588,     770
1779,     776,    1634,    1589,     771
1780,     777,    1635,    1590,     772
1781,    1631,    1636,    1591,    1586
1782,    1632,    1637,    1592,    1587
1783,    1633,    1638,    1593,    1588
1784,    1634,    1639,    1594,    1589
1785,    1635,    1640,    1595,    1590
1786,    1641,    1642,    1597,    1596
1787,    1643,    1644,    1599,    1598
1788,    1645,    1646,    1601,    1600
1789,    1647,    1648,    1603,    1602
1790,    1649,    1650,    1605,    1604
1791,    1642,     980,     975,    1597
1792,    1644,     981,     976,    1599
1793,    1646,     982,     977,    1601
1794,    1648,     983,     978,    1603
1795,    1650,     984,     979,    1605
1796,     980,    1651,    1606,     975
1797,     981,    1652,    1607,     976
1798,     982,    1653,    1608,     977
1799,     983,    1654,    1609,     978
1800,     984,    1655,    1610,     979
1801,    1651,     879,     874,    1606
1802,    1652,     880,     875,    1607
1803,    1653,     881,     876,    1608
1804,    1654,     882,     877,    1609
1805,    1655,     883,     878,    1610
1806,     879,    1656,    1611,     874
1807,     880,    1657,    1612,     875
1808,     881,    1658,    1613,     876
1809,     882,    1659,    1614,     877
1810,     883,    1660,    1615,     878
1811,    1656,    1661,    1616,    1611
1812,    1657,    1662,    1617,    1612
1813,    1658,    1663,    1618,    1613
1814,    1659,    1664,    1619,    1614
1815,    1660,    1665,    1620,    1615
1816,    1661,    1666,    1621,    1616
1817,    1662,    1667,    1622,    1617
1818,    1663,    1668,    1623,    1618
1819,    1664,    1669,    1624,    1619
1820,    1665,    1670,    1625,    1620
1821,    1666,     677,     672,    1621
1822,    1667,     678,     673,    1622
1823,    1668,     679,     674,    1623
1824,    1669,     680,     675,    1624
1825,    1670,     681,     676,    1625
1826,     677,    1671,    1626,     672
1827,     678,    1672,    1627,     673
1828,     679,    1673,    1628,     674
1829,     680,    1674,    1629,     675
1830,     681,    1675,    1630,     676
1831,    1671,     778,     773,    1626
1832,    1672,     779,     774,    1627
1833,    1673,     780,     775,    1628
1834,    1674,     781,     776,    1629
1835,    1675,     782,     777,    1630
1836,     778,    1676,    1631,     773
1837,     779,    1677,    1632,     774
1838,     780,    1678,    1633,     775
1839,     781,    1679,    1634,     776
1840,     782,    1680,    1635,     777
1841,    1676,    1681,    1636,    1631
1842,    1677,    1682,    1637,    1632
1843,    1678,    1683,    1638,    1633
1844,    1679,    1684,    1639,    1634
1845,    1680,    1685,    1640,    1635
1846,    1686,    1687,    1642,    1641
1847,    1688,    1689,    1644,    1643
1848,    1690,    1691,    1646,    1645
1849,    1692,    1693,    1648,    1647
1850,    1694,    1695,    1650,    1649
1851,    1687,     985,     980,    1642
1852,    1689,     986,     981,    1644
1853,    1691,     987,     982,    1646
1854,    1693,     988,     983,    1648
1855,    1695,     989,     984,    1650
1856,     985,    1696,    1651,     980
1857,     986,    1697,    1652,     981
1858,     987,    1698,    1653,     982
1859,     988,    1699,    1654,     983
1860,     989,    1700,    1655,     984
1861,    1696,     884,     879,    1651
1862,    1697,     885,     880,    1652
1863,    1698,     886,     881,    1653
1864,    1699,     887,     882,    1654
1865,    1700,     888,     883,    1655
1866,     884,    1701,    1656,     879
1867,     885,    1702,    1657,     880
1868,     886,    1703,    1658,     881
1869,     887,    1704,    1659,     882
1870,     888,    1705,    1660,     883
1871,    1701,    1706,    1661,    1656
1872,    1702,    1707,    1662,    1657
1873,    1703,    1708,    1663,    1658
1874,    1704,    1709,    1664,    1659
1875,    1705,    1710,    1665,    1660
1876,    1706,    1711,    1666,    1661
1877,    1707,    1712,    1667,    1662
1878,    1708,    1713,    1668,    1663
1879,    1709,    1714,    1669,    1664
1880,    1710,    1715,    1670,    1665
1881,    1711,     682,     677,    1666
1882,    1712,     683,     678,    1667
1883,    1713,     684,     679,    1668
1884,    1714,     685,     680,    1669
1885,    1715,     686,     681,    1670
1886,     682,    1716,    1671,     677
1887,     683,    1717,    1672,     678
1888,     684,    1718,    1673,     679
1889,     685,    1719,    1674,     680
1890,     686,    1720,    1675,     681
1891,    1716,     783,     778,    1671
1892,    1717,     784,     779,    1672
1893,    1718,     785,     780,    1673
1894,    1719,     786,     781,    1674
1895,    1720,     787,     782,    1675
1896,     783,    1721,    1676,     778
1897,     784,    1722,    1677,     779
1898,     785,    1723,    1678,     780
1899,     786,    1724,    1679,     781
1900,     787,    1725,    1680,     782
1901,    1721,    1726,    1681,    1676
1902,    1722,    1727,    1682,    1677
1903,    1723,    1728,    1683,    1678
1904,    1724,    1729,    1684,    1679
1905,    1725,    1730,    1685,    1680
1906,    1731,    1732,    1687,    1686
1907,    1733,    1734,    1689,    1688
1908,    1735,    1736,    1691,    1690
1909,    1737,    1738,    1693,    1692
1910,    1739,    1740,    1695,    1694
1911,    1732,     990,     985,    1687
1912,    1734,     991,     986,    1689
1913,    1736,     992,     987,    1691
1914,    1738,     993,     988,    1693
1915,    1740,     994,     989,    1695
1916,     990,    1741,    1696,     985
1917,     991,    1742,    1697,     986
1918,     992,    1743,    1698,     987
1919,     993,    1744,    1699,     988
1920,     994,    1745,    1700,     989
1921,    1741,     889,     884,    1696
1922,    1742,     890,     885,    1697
1923,    1743,     891,     886,    1698
1924,    1744,     892,     887,    1699
1925,    1745,     893,     888,    1700
1926,     889,    1746,    1701,     884
1927,     890,    1747,    1702,     885
1928,     891,    1748,    1703,     886
1929,     892,    1749,    1704,     887
1930,     893,    1750,    1705,     888
1931,    1746,    1751,    1706,    1701
1932,    1747,    1752,    1707,    1702
1933,    1748,    1753,    1708,    1703
1934,    1749,    1754,    1709,    1704
1935,    1750,    1755,    1710,    1705
1936,    1751,    1756,    1711,    1706
1937,    1752,    1757,    1712,    1707
1938,    1753,    1758,    1713,    1708
1939,    1754,    1759,    1714,    1709
1940,    1755,    1760,    1715,    1710
1941,    1756,     687,     682,    1711
1942,    1757,     688,     683,    1712
1943,    1758,     689,     684,    1713
1944,    1759,     690,     685,    1714
1945,    1760,     691,     686,    1715
1946,     687,    1761,    1716,     682
1947,     688,    1762,    1717,     683
1948,     689,    1763,    1718,     684
1949,     690,    1764,    1719,     685
1950,     691,    1765,    1720,     686
1951,    1761,     788,     783,    1716
1952,    1762,     789,     784,    1717
1953,    1763,     790,     785,    1718
1954,    1764,     791,     786,    1719
1955,    1765,     792,     787,    1720
1956,     788,    1766,    1721,     783
1957,     789,    1767,    1722,     784
1958,     790,    1768,    1723,     785
1959,     791,    1769,    1724,     786
1960,     792,    1770,    1725,     787
1961,    1766,    1771,    1726,    1721
1962,    1767,    1772,    1727,    1722
1963,    1768,    1773,    1728,    1723
1964,    1769,    1774,    1729,    1724
1965,    1770,    1775,    1730,    1725
1966,    1776,    1777,    1732,    1731
1967,    1778,    1779,    1734,    1733
1968,    1780,    1781,    1736,    1735
1969,    1782,    1783,    1738,    1737
1970,    1784,    1785,    1740,    1739
1971,    1777,     995,     990,    1732
1972,    1779,     996,     991,    1734
1973,    1781,     997,     992,    1736
1974,    1783,     998,     993,    1738
1975,    1785,     999,     994,    1740
1976,     995,    1786,    1741,     990
1977,     996,    1787,    1742,     991
1978,     997,    1788,    1743,     992
1979,     998,    1789,    1744,     993
1980,     999,    1790,    1745,     994
1981,    1786,     894,     889,    1741
1982,    1787,     895,     890,    1742
1983,    1788,     896,     891,    1743
1984,    1789,     897,     892,    1744
1985,    1790,     898,     893,    1745
1986,     894,    1791,    1746,     889
1987,     895,    1792,    1747,     890
1988,     896,    1793,    1748,     891
1989,     897,    1794,    1749,     892
1990,     898,    1795,    1750,     893
1991,    1791,    1796,    1751,    1746
1992,    1792,    1797,    1752,    1747
1993,    1793,    1798,    1753,    1748
1994,    1794,    1799,    1754,    1749
1995,    1795,    1800,    1755,    1750
1996,    1796,    1801,    1756,    1751
1997,    1797,    1802,    1757,    1752
1998,    1798,    1803,    1758,    1753
1999,    1799,    1804,    1759,    1754
2000,    1800,    1805,    1760,    1755
2001,    1801,     692,     687,    1756
2002,    1802,     693,     688,    1757
2003,    1803,     694,     689,    1758
2004,    1804,     695,     690,    1759
2005,    1805,     696,     691,    1760
2006,     692,    1806,    1761,     687
2007,     693,    1807,    1762,     688
2008,     694,    1808,    1763,     689
2009,     695,    1809,    1764,     690
2010,     696,    1810,    1765,     691
2011,    1806,     793,     788,    1761
2012,    1807,     794,     789,    1762
2013,    1808,     795,     790,    1763
2014,    1809,     796,     791,    1764
2015,    1810,     797,     792,    1765
2016,     793,    1811,    1766,     788
2017,     794,    1812,    1767,     789
2018,     795,    1813,    1768,     790
2019,     796,    1814,    1769,     791
2020,     797,    1815,    1770,     792
2021,    1811,    1816,    1771,    1766
2022,    1812,    1817,    1772,    1767
2023,    1813,    1818,    1773,    1768
2024,    1814,    1819,    1774,    1769
2025,    1815,    1820,    1775,    1770
2026,    1821,    1822,    1777,    1776
2027,    1823,    1824,    1779,    1778
2028,    1825,    1826,    1781,    1780
2029,    1827,    1828,    1783,    1782
2030,    1829,    1830,    1785,    1784
2031,    1822,    1000,     995,    1777
2032,    1824,    1001,     996,    1779
2033,    1826,    1002,     997,    1781
2034,    1828,    1003,     998,    1783
2035,    1830,    1004,     999,    1785
2036,    1000,    1831,    1786,     995
2037,    1001,    1832,    1787,     996
2038,    1002,    1833,    1788,     997
2039,    1003,    1834,    1789,     998
2040,    1004,    1835,    1790,     999
2041,    1831,     899,     894,    1786
2042,    1832,     900,     895,    1787
2043,    1833,     901,     896,    1788
2044,    1834,     902,     897,    1789
2045,    1835,     903,     898,    1790
2046,     899,    1836,    1791,     894
2047,     900,    1837,    1792,     895
2048,     901,    1838,    1793,     896
2049,     902,    1839,    1794,     897
2050,     903,    1840,    1795,     898
2051,    1836,    1841,    1796,    1791
2052,    1837,    1842,    1797,    1792
2053,    1838,    1843,    1798,    1793
2054,    1839,    1844,    1799,    1794
2055,    1840,    1845,    1800,    1795
2056,    1841,    1846,    1801,    1796
2057,    1842,    1847,    1802,    1797
2058,    1843,    1848,    1803,    1798
2059,    1844,    1849,    1804,    1799
2060,    1845,    1850,    1805,    1800
2061,    1846,     697,     692,    1801
2062,    1847,     698,     693,    1802
2063,    1848,     699,     694,    1803
2064,    1849,     700,     695,    1804
2065,    1850,     701,     696,    1805
2066,     697,    1851,    1806,     692
2067,     698,    1852,    1807,     693
2068,     699,    1853,    1808,     694
2069,     700,    1854,    1809,     695
2070,     701,    1855,    1810,     696
2071,    1851,     798,     793,    1806
2072,    1852,     799,     794,    1807
2073,    1853,     800,     795,    1808
2074,    1854,     801,     796,    1809
2075,    1855,     802,     797,    1810
2076,     798,    1856,    1811,     793
2077,     799,    1857,    1812,     794
2078,     800,    1858,    1813,     795
2079,     801,    1859,    1814,     796
2080,     802,    1860,    1815,     797
2081,    1856,    1861,    1816,    1811
2082,    1857,    1862,    1817,    1812
2083,    1858,    1863,    1818,    1813
2084,    1859,    1864,    1819,    1814
2085,    1860,    1865,    1820,    1815
2086,    1866,    1867,    1822,    1821
2087,    1868,    1869,    1824,    1823
2088,    1870,    1871,    1826,    1825
2089,    1872,    1873,    1828,    1827
2090,    1874,    1875,    1830,    1829
2091,    1867,    1005,    1000,    1822
2092,    1869,    1006,    1001,    1824
2093,    1871,    1007,    1002,    1826
2094,    1873,    1008,    1003,    1828
2095,    1875,    1009,    1004,    1830
2096,    1005,    1876,    1831,    1000
2097,    1006,    1877,    1832,    1001
2098,    1007,    1878,    1833,    1002
2099,    1008,    1879,    1834,    1003
2100,    1009,    1880,    1835,    1004
2101,    1876,     904,     899,    1831
2102,    1877,     905,     900,    1832
2103,    1878,     906,     901,    1833
2104,    1879,     907,     902,    1834
2105,    1880,     908,     903,    1835
2106,     904,    1881,    1836,     899
2107,     905,    1882,    1837,     900
2108,     906,    1883,    1838,     901
2109,     907,    1884,    1839,     902
2110,     908,    1885,    1840,     903
2111,    1881,    1886,    1841,    1836
2112,    1882,    1887,    1842,    1837
2113,    1883,    1888,    1843,    1838
2114,    1884,    1889,    1844,    1839
2115,    1885,    1890,    1845,    1840
2116,    1886,    1891,    1846,    1841
2117,    1887,    1892,    1847,    1842
2118,    1888,    1893,    1848,    1843
2119,    1889,    1894,    1849,    1844
2120,    1890,    1895,    1850,    1845
2121,    1891,     702,     697,    1846
2122,    1892,     703,     698,    1847
2123,    1893,     704,     699,    1848
2124,    1894,     705,     700,    1849
2125,    1895,     706,     701,    1850
2126,     702,    1896,    1851,     697
2127,     703,    1897,    1852,     698
2128,     704,    1898,    1853,     699
2129,     705,    1899,    1854,     700
2130,     706,    1900,    1855,     701
2131,    1896,     803,     798,    1851
2132,    1897,     804,     799,    1852
2133,    1898,     805,     800,    1853
2134,    1899,     806,     801,    1854
2135,    1900,     807,     802,    1855
2136,     803,    1901,    1856,     798
2137,     804,    1902,    1857,     799
2138,     805,    1903,    1858,     800
2139,     806,    1904,    1859,     801
2140,     807,    1905,    1860,     802
2141,    1901,    1906,    1861,    1856
2142,    1902,    1907,    1862,    1857
2143,    1903,    1908,    1863,    1858
2144,    1904,    1909,    1864,    1859
2145,    1905,    1910,    1865,    1860
2146,    1018,    1017,    1867,    1866
2147,    1022,    1021,    1869,    1868
2148,    1026,    1025,    1871,    1870
2149,    1030,    1029,    1873,    1872
2150,    1911,    1912,    1875,    1874
2151,    1017,     911,    1005,    1867
2152,    1021,     912,    1006,    1869
2153,    1025,     913,    1007,    1871
2154,    1029,     914,    1008,    1873
2155,    1912,    1010,    1009,    1875
2156,     911,    1034,    1876,    1005
2157,     912,    1036,    1877,    1006
2158,     913,    1038,    1878,    1007
2159,     914,    1040,    1879,    1008
2160,    1010,    1913,    1880,    1009
2161,    1034,     810,     904,    1876
2162,    1036,     811,     905,    1877
2163,    1038,     812,     906,    1878
2164,    1040,     813,     907,    1879
2165,    1913,     909,     908,    1880
2166,     810,    1044,    1881,     904
2167,     811,    1046,    1882,     905
2168,     812,    1048,    1883,     906
2169,     813,    1050,    1884,     907
2170,     909,    1914,    1885,     908
2171,    1044,    1054,    1886,    1881
2172,    1046,    1056,    1887,    1882
2173,    1048,    1058,    1888,    1883
2174,    1050,    1060,    1889,    1884
2175,    1914,    1915,    1890,    1885
2176,    1054,    1064,    1891,    1886
2177,    1056,    1066,    1892,    1887
2178,    1058,    1068,    1893,    1888
2179,    1060,    1070,    1894,    1889
2180,    1915,    1916,    1895,    1890
2181,    1064,     608,     702,    1891
2182,    1066,     609,     703,    1892
2183,    1068,     610,     704,    1893
2184,    1070,     611,     705,    1894
2185,    1916,     707,     706,    1895
2186,     608,    1074,    1896,     702
2187,     609,    1076,    1897,     703
2188,     610,    1078,    1898,     704
2189,     611,    1080,    1899,     705
2190,     707,    1917,    1900,     706
2191,    1074,     709,     803,    1896
2192,    1076,     710,     804,    1897
2193,    1078,     711,     805,    1898
2194,    1080,     712,     806,    1899
2195,    1917,     808,     807,    1900
2196,     709,    1084,    1901,     803
2197,     710,    1086,    1902,     804
2198,     711,    1088,    1903,     805
2199,     712,    1090,    1904,     806
2200,     808,    1918,    1905,     807
2201,    1084,    1094,    1906,    1901
2202,    1086,    1096,    1907,    1902
2203,    1088,    1098,    1908,    1903
2204,    1090,    1100,    1909,    1904
2205,    1918,    1919,    1910,    1905


*ELSET, ELSET=set0
   1,    2,    3,    4,    5,    6,    7,    8,    9,   10,   11,   12,   13,   14,   15,   16
  17,   18,   19,   20,   21,   22,   23,   24,   25,   26,   27,   28,   29,   30,   31,   32
  33,   34,   35,   36,   37,   38,   39,   40,   41,   42,   43,   44,   45,   46,   47,   48
  49,   50,   51,   52,   53,   54,   55,   56,   57,   58,   59,   60,   61,   62,   63,   64
  65,   66,   67,   68,   69,   70,   71,   72,   73,   74,   75,   76,   77,   78,   79,   80
  81,   82,   83,   84,   85,   86,   87,   88,   89,   90,   91,   92,   93,   94,   95,   96
  97,   98,   99,  100,  101,  102,  103,  104,  105,  106,  107,  108,  109,  110,  111,  112
 113,  114,  115,  116,  117,  118,  119,  120,  121,  122,  123,  124,  125,  126,  127,  128
 129,  130,  131,  132,  133,  134,  135,  136,  137,  138,  139,  140,  141,  142,  143,  144
 145,  146,  147,  148,  149,  150,  151,  152,  153,  154,  155,  156,  157,  158,  159,  160
 161,  162,  163,  164,  165,  166,  167,  168,  169,  170,  171,  172,  173,  174,  175,  176
 177,  178,  179,  180,  181,  182,  183,  184,  185,  186,  187,  188,  189,  190,  191,  192
 193,  194,  195,  196,  197,  198,  199,  200,  201,  202,  203,  204,  205,  206,  207,  208
 209,  210,  211,  212,  213,  214,  215,  216,  217,  218,  219,  220,  221,  222,  223,  224
 225,  226,  227,  228,  229,  230,  231,  232,  233,  234,  235,  236,  237,  238,  239,  240
 241,  242,  243,  244,  245,  246,  247,  248,  249,  250,  251,  252,  253,  254,  255,  256
 257,  258,  259,  260,  261,  262,  263,  264,  265,  266,  267,  268,  269,  270,  271,  272
 273,  274,  275,  276,  277,  278,  279,  280,  281,  282,  283,  284,  285,  286,  287,  288
 289,  290,  291,  292,  293,  294,  295,  296,  297,  298,  299,  300,  301,  302,  303,  304
 305,  306,  307,  308,  309,  310,  311,  312,  313,  314,  315,  316,  317,  318,  319,  320
 321,  322,  323,  324,  325,  326,  327,  328,  329,  330,  331,  332,  333,  334,  335,  336
 337,  338,  339,  340,  341,  342,  343,  344,  345,  346,  347,  348,  349,  350,  351,  352
 353,  354,  355,  356,  357,  358,  359,  360,  361,  362,  363,  364,  365,  366,  367,  368
 369,  370,  371,  372,  373,  374,  375,  376,  377,  378,  379,  380,  381,  382,  383,  384
 385,  386,  387,  388,  389,  390,  391,  392,  393,  394,  395,  396,  397,  398,  399,  400
 401,  402,  403,  404,  405,  406,  407,  408,  409,  410,  411,  412,  413,  414,  415,  416
 417,  418,  419,  420,  421,  422,  423,  424,  425,  426,  427,  428,  429,  430,  431,  432
 433,  434,  435,  436,  437,  438,  439,  440,  441,  442,  443,  444,  445,  446,  447,  448
 449,  450,  451,  452,  453,  454,  455,  456,  457,  458,  459,  460,  461,  462,  463,  464
 465,  466,  467,  468,  469,  470,  471,  472,  473,  474,  475,  476,  477,  478,  479,  480
 481,  482,  483,  484,  485,  486,  487,  488,  489,  490,  491,  492,  493,  494,  495,  496
 497,  498,  499,  500

** Section: I-ShapeGirders_S355  Profile: I-ShapeGirders_S355
*Beam General Section, elset=set0, material=S355, section=I
200.0, 1200.0, 500.0, 500.0, 25.0, 25.0, 16.0
0.0, 1.0, 0.0

*ELSET, ELSET=set1
 501,  502,  503,  504,  505,  506,  507,  508,  509,  510,  511,  512,  513,  514,  515,  516
 517,  518,  519,  520,  521,  522,  523,  524,  525,  526,  527,  528,  529,  530,  531,  532
 533,  534,  535,  536,  537,  538,  539,  540,  541,  542,  543,  544,  545,  546,  547,  548
 549,  550,  551,  552,  553,  554,  555,  556,  557,  558,  559,  560,  561,  562,  563,  564
 565,  566,  567,  568,  569,  570,  571,  572,  573,  574,  575,  576,  577,  578,  579,  580
 581,  582,  583,  584,  585,  586,  587,  588,  589,  590,  591,  592,  593,  594,  595,  596
 597,  598,  599,  600,  601,  602,  603,  604,  605,  606,  607,  608,  609,  610,  611,  612
 613,  614,  615,  616,  617,  618,  619,  620,  621,  622,  623,  624,  625,  626,  627,  628
 629,  630,  631,  632,  633,  634,  635,  636,  637,  638,  639,  640,  641,  642,  643,  644
 645,  646,  647,  648,  649,  650,  651,  652,  653,  654,  655,  656,  657,  658,  659,  660
 661,  662,  663,  664,  665,  666,  667,  668,  669,  670,  671,  672,  673,  674,  675,  676
 677,  678,  679,  680,  681,  682,  683,  684,  685,  686,  687,  688,  689,  690,  691,  692
 693,  694,  695,  696,  697,  698,  699,  700,  701,  702,  703,  704,  705,  706,  707,  708
 709,  710,  711,  712,  713,  714,  715,  716,  717,  718,  719,  720,  721,  722,  723,  724
 725,  726,  727,  728,  729,  730,  731,  732,  733,  734,  735,  736,  737,  738,  739,  740
 741,  742,  743,  744,  745,  746,  747,  748,  749,  750,  751,  752,  753,  754,  755,  756
 757,  758,  759,  760,  761,  762,  763,  764,  765,  766,  767,  768,  769,  770,  771,  772
 773,  774,  775,  776,  777,  778,  779,  780,  781,  782,  783,  784,  785,  786,  787,  788
 789,  790,  791,  792,  793,  794,  795,  796,  797,  798,  799,  800,  801,  802,  803,  804
 805,  806,  807,  808,  809,  810,  811,  812,  813,  814,  815,  816,  817,  818,  819,  820
 821,  822,  823,  824,  825,  826,  827,  828,  829,  830,  831,  832,  833,  834,  835,  836
 837,  838,  839,  840,  841,  842,  843,  844,  845,  846,  847,  848,  849,  850,  851,  852
 853,  854,  855,  856,  857,  858,  859,  860,  861,  862,  863,  864,  865,  866,  867,  868
 869,  870,  871,  872,  873,  874,  875,  876,  877,  878,  879,  880,  881,  882,  883,  884
 885,  886,  887,  888,  889,  890,  891,  892,  893,  894,  895,  896,  897,  898,  899,  900
 901,  902,  903,  904,  905,  906,  907,  908,  909,  910,  911,  912,  913,  914,  915,  916
 917,  918,  919,  920,  921,  922,  923,  924,  925,  926,  927,  928,  929,  930,  931,  932
 933,  934,  935,  936,  937,  938,  939,  940,  941,  942,  943,  944,  945,  946,  947,  948
 949,  950,  951,  952,  953,  954,  955,  956,  957,  958,  959,  960,  961,  962,  963,  964
 965,  966,  967,  968,  969,  970,  971,  972,  973,  974,  975,  976,  977,  978,  979,  980
 981,  982,  983,  984,  985,  986,  987,  988,  989,  990,  991,  992,  993,  994,  995,  996
 997,  998,  999, 1000, 1001, 1002, 1003, 1004, 1005

** Section: Rigid_Rigid  Profile: Rigid_Rigid
*Beam General Section, elset=set1, material=Rigid, section=RECT
100.0, 100.0
1.0, 0.0, 0.0

*ELSET, ELSET=set2
1006, 1007, 1008, 1009, 1010, 1011, 1012, 1013, 1014, 1015, 1016, 1017, 1018, 1019, 1020, 1021
1022, 1023, 1024, 1025, 1026, 1027, 1028, 1029, 1030, 1031, 1032, 1033, 1034, 1035, 1036, 1037
1038, 1039, 1040, 1041, 1042, 1043, 1044, 1045, 1046, 1047, 1048, 1049, 1050, 1051, 1052, 1053
1054, 1055, 1056, 1057, 1058, 1059, 1060, 1061, 1062, 1063, 1064, 1065, 1066, 1067, 1068, 1069
1070, 1071, 1072, 1073, 1074, 1075, 1076, 1077, 1078, 1079, 1080, 1081, 1082, 1083, 1084, 1085
1086, 1087, 1088, 1089, 1090, 1091, 1092, 1093, 1094, 1095, 1096, 1097, 1098, 1099, 1100, 1101
1102, 1103, 1104, 1105, 1106, 1107, 1108, 1109, 1110, 1111, 1112, 1113, 1114, 1115, 1116, 1117
1118, 1119, 1120, 1121, 1122, 1123, 1124, 1125, 1126, 1127, 1128, 1129, 1130, 1131, 1132, 1133
1134, 1135, 1136, 1137, 1138, 1139, 1140, 1141, 1142, 1143, 1144, 1145, 1146, 1147, 1148, 1149
1150, 1151, 1152, 1153, 1154, 1155, 1156, 1157, 1158, 1159, 1160, 1161, 1162, 1163, 1164, 1165
1166, 1167, 1168, 1169, 1170, 1171, 1172, 1173, 1174, 1175, 1176, 1177, 1178, 1179, 1180, 1181
1182, 1183, 1184, 1185, 1186, 1187, 1188, 1189, 1190, 1191, 1192, 1193, 1194, 1195, 1196, 1197
1198, 1199, 1200, 1201, 1202, 1203, 1204, 1205, 1206, 1207, 1208, 1209, 1210, 1211, 1212, 1213
1214, 1215, 1216, 1217, 1218, 1219, 1220, 1221, 1222, 1223, 1224, 1225, 1226, 1227, 1228, 1229
1230, 1231, 1232, 1233, 1234, 1235, 1236, 1237, 1238, 1239, 1240, 1241, 1242, 1243, 1244, 1245
1246, 1247, 1248, 1249, 1250, 1251, 1252, 1253, 1254, 1255, 1256, 1257, 1258, 1259, 1260, 1261
1262, 1263, 1264, 1265, 1266, 1267, 1268, 1269, 1270, 1271, 1272, 1273, 1274, 1275, 1276, 1277
1278, 1279, 1280, 1281, 1282, 1283, 1284, 1285, 1286, 1287, 1288, 1289, 1290, 1291, 1292, 1293
1294, 1295, 1296, 1297, 1298, 1299, 1300, 1301, 1302, 1303, 1304, 1305, 1306, 1307, 1308, 1309
1310, 1311, 1312, 1313, 1314, 1315, 1316, 1317, 1318, 1319, 1320, 1321, 1322, 1323, 1324, 1325
1326, 1327, 1328, 1329, 1330, 1331, 1332, 1333, 1334, 1335, 1336, 1337, 1338, 1339, 1340, 1341
1342, 1343, 1344, 1345, 1346, 1347, 1348, 1349, 1350, 1351, 1352, 1353, 1354, 1355, 1356, 1357
1358, 1359, 1360, 1361, 1362, 1363, 1364, 1365, 1366, 1367, 1368, 1369, 1370, 1371, 1372, 1373
1374, 1375, 1376, 1377, 1378, 1379, 1380, 1381, 1382, 1383, 1384, 1385, 1386, 1387, 1388, 1389
1390, 1391, 1392, 1393, 1394, 1395, 1396, 1397, 1398, 1399, 1400, 1401, 1402, 1403, 1404, 1405
1406, 1407, 1408, 1409, 1410, 1411, 1412, 1413, 1414, 1415, 1416, 1417, 1418, 1419, 1420, 1421
1422, 1423, 1424, 1425, 1426, 1427, 1428, 1429, 1430, 1431, 1432, 1433, 1434, 1435, 1436, 1437
1438, 1439, 1440, 1441, 1442, 1443, 1444, 1445, 1446, 1447, 1448, 1449, 1450, 1451, 1452, 1453
1454, 1455, 1456, 1457, 1458, 1459, 1460, 1461, 1462, 1463, 1464, 1465, 1466, 1467, 1468, 1469
1470, 1471, 1472, 1473, 1474, 1475, 1476, 1477, 1478, 1479, 1480, 1481, 1482, 1483, 1484, 1485
1486, 1487, 1488, 1489, 1490, 1491, 1492, 1493, 1494, 1495, 1496, 1497, 1498, 1499, 1500, 1501
1502, 1503, 1504, 1505, 1506, 1507, 1508, 1509, 1510, 1511, 1512, 1513, 1514, 1515, 1516, 1517
1518, 1519, 1520, 1521, 1522, 1523, 1524, 1525, 1526, 1527, 1528, 1529, 1530, 1531, 1532, 1533
1534, 1535, 1536, 1537, 1538, 1539, 1540, 1541, 1542, 1543, 1544, 1545, 1546, 1547, 1548, 1549
1550, 1551, 1552, 1553, 1554, 1555, 1556, 1557, 1558, 1559, 1560, 1561, 1562, 1563, 1564, 1565
1566, 1567, 1568, 1569, 1570, 1571, 1572, 1573, 1574, 1575, 1576, 1577, 1578, 1579, 1580, 1581
1582, 1583, 1584, 1585, 1586, 1587, 1588, 1589, 1590, 1591, 1592, 1593, 1594, 1595, 1596, 1597
1598, 1599, 1600, 1601, 1602, 1603, 1604, 1605, 1606, 1607, 1608, 1609, 1610, 1611, 1612, 1613
1614, 1615, 1616, 1617, 1618, 1619, 1620, 1621, 1622, 1623, 1624, 1625, 1626, 1627, 1628, 1629
1630, 1631, 1632, 1633, 1634, 1635, 1636, 1637, 1638, 1639, 1640, 1641, 1642, 1643, 1644, 1645
1646, 1647, 1648, 1649, 1650, 1651, 1652, 1653, 1654, 1655, 1656, 1657, 1658, 1659, 1660, 1661
1662, 1663, 1664, 1665, 1666, 1667, 1668, 1669, 1670, 1671, 1672, 1673, 1674, 1675, 1676, 1677
1678, 1679, 1680, 1681, 1682, 1683, 1684, 1685, 1686, 1687, 1688, 1689, 1690, 1691, 1692, 1693
1694, 1695, 1696, 1697, 1698, 1699, 1700, 1701, 1702, 1703, 1704, 1705, 1706, 1707, 1708, 1709
1710, 1711, 1712, 1713, 1714, 1715, 1716, 1717, 1718, 1719, 1720, 1721, 1722, 1723, 1724, 1725
1726, 1727, 1728, 1729, 1730, 1731, 1732, 1733, 1734, 1735, 1736, 1737, 1738, 1739, 1740, 1741
1742, 1743, 1744, 1745, 1746, 1747, 1748, 1749, 1750, 1751, 1752, 1753, 1754, 1755, 1756, 1757
1758, 1759, 1760, 1761, 1762, 1763, 1764, 1765, 1766, 1767, 1768, 1769, 1770, 1771, 1772, 1773
1774, 1775, 1776, 1777, 1778, 1779, 1780, 1781, 1782, 1783, 1784, 1785, 1786, 1787, 1788, 1789
1790, 1791, 1792, 1793, 1794, 1795, 1796, 1797, 1798, 1799, 1800, 1801, 1802, 1803, 1804, 1805
1806, 1807, 1808, 1809, 1810, 1811, 1812, 1813, 1814, 1815, 1816, 1817, 1818, 1819, 1820, 1821
1822, 1823, 1824, 1825, 1826, 1827, 1828, 1829, 1830, 1831, 1832, 1833, 1834, 1835, 1836, 1837
1838, 1839, 1840, 1841, 1842, 1843, 1844, 1845, 1846, 1847, 1848, 1849, 1850, 1851, 1852, 1853
1854, 1855, 1856, 1857, 1858, 1859, 1860, 1861, 1862, 1863, 1864, 1865, 1866, 1867, 1868, 1869
1870, 1871, 1872, 1873, 1874, 1875, 1876, 1877, 1878, 1879, 1880, 1881, 1882, 1883, 1884, 1885
1886, 1887, 1888, 1889, 1890, 1891, 1892, 1893, 1894, 1895, 1896, 1897, 1898, 1899, 1900, 1901
1902, 1903, 1904, 1905, 1906, 1907, 1908, 1909, 1910, 1911, 1912, 1913, 1914, 1915, 1916, 1917
1918, 1919, 1920, 1921, 1922, 1923, 1924, 1925, 1926, 1927, 1928, 1929, 1930, 1931, 1932, 1933
1934, 1935, 1936, 1937, 1938, 1939, 1940, 1941, 1942, 1943, 1944, 1945, 1946, 1947, 1948, 1949
1950, 1951, 1952, 1953, 1954, 1955, 1956, 1957, 1958, 1959, 1960, 1961, 1962, 1963, 1964, 1965
1966, 1967, 1968, 1969, 1970, 1971, 1972, 1973, 1974, 1975, 1976, 1977, 1978, 1979, 1980, 1981
1982, 1983, 1984, 1985, 1986, 1987, 1988, 1989, 1990, 1991, 1992, 1993, 1994, 1995, 1996, 1997
1998, 1999, 2000, 2001, 2002, 2003, 2004, 2005, 2006, 2007, 2008, 2009, 2010, 2011, 2012, 2013
2014, 2015, 2016, 2017, 2018, 2019, 2020, 2021, 2022, 2023, 2024, 2025, 2026, 2027, 2028, 2029
2030, 2031, 2032, 2033, 2034, 2035, 2036, 2037, 2038, 2039, 2040, 2041, 2042, 2043, 2044, 2045
2046, 2047, 2048, 2049, 2050, 2051, 2052, 2053, 2054, 2055, 2056, 2057, 2058, 2059, 2060, 2061
2062, 2063, 2064, 2065, 2066, 2067, 2068, 2069, 2070, 2071, 2072, 2073, 2074, 2075, 2076, 2077
2078, 2079, 2080, 2081, 2082, 2083, 2084, 2085, 2086, 2087, 2088, 2089, 2090, 2091, 2092, 2093
2094, 2095, 2096, 2097, 2098, 2099, 2100, 2101, 2102, 2103, 2104, 2105, 2106, 2107, 2108, 2109
2110, 2111, 2112, 2113, 2114, 2115, 2116, 2117, 2118, 2119, 2120, 2121, 2122, 2123, 2124, 2125
2126, 2127, 2128, 2129, 2130, 2131, 2132, 2133, 2134, 2135, 2136, 2137, 2138, 2139, 2140, 2141
2142, 2143, 2144, 2145, 2146, 2147, 2148, 2149, 2150, 2151, 2152, 2153, 2154, 2155, 2156, 2157
2158, 2159, 2160, 2161, 2162, 2163, 2164, 2165, 2166, 2167, 2168, 2169, 2170, 2171, 2172, 2173
2174, 2175, 2176, 2177, 2178, 2179, 2180, 2181, 2182, 2183, 2184, 2185, 2186, 2187, 2188, 2189
2190, 2191, 2192, 2193, 2194, 2195, 2196, 2197, 2198, 2199, 2200, 2201, 2202, 2203, 2204, 2205

*Shell Section, ELSET=set2, MATERIAL=C40/50
200.0

*End Part

*ASSEMBLY, NAME=CompisteIGriderBridgeSpans5_SA

*INSTANCE, NAME=CompisteIGriderBridgeSpans5_SA-1, PART=CompisteIGriderBridgeSpans5_SA

*END INSTANCE


*END ASSEMBLY

**
** MATERIALS
**
*Material, name=C40/50
*Density
2.5e-09,
*Elastic
35000.0, 0.2
*Material, name=S355
*Density
7.8e-09,
*Elastic
210000.0, 0.3
*Material, name=Rigid
*Elastic
100000000.0, 0.0
**
** BOUNDARY CONDITIONS
**

*Step, name=Step-1, nlgeom=NO, inc=5
*Static, direct
0.2, 1.,
**
** OUTPUT REQUESTS
**
*RESTART, WRITE, FREQUENCY=0
*OUTPUT, FIELD, VARIABLE=PRESELECT
*OUTPUT, HISTORY, VARIABLE=PRESELECT
*END STEP
